Li 
 1.0000000000000000
    21.0004999999999988    0.0000000000000000    0.0000000000000000
     0.0000000000000000   21.0004999999999988    0.0000000000000000
    -0.0000000000000000   -0.0000000000000000   21.0004999999999988
 Li 
 500
Cartesian
 -0.4863435200000000 -0.2269461700000000  0.0780451600000000
 -0.7598863000000000  2.3327499899999999  1.8969797700000000
  0.0546355900000000  4.4887746499999999  4.9443805699999999
  0.1418298000000000  6.6575250800000001  6.5580636600000002
  0.1059432100000000  8.6429138800000000  8.3633872500000006
  0.2075883400000000 10.8728741000000007 10.7610603600000001
  0.3033344600000000 12.0950561099999998 12.9562243200000005
  0.4681513000000000 14.4300973700000004 14.0217820399999997
 -0.2803609400000000 16.9718624700000014 17.3939841999999985
 -0.0898295700000000 19.0013190999999999 18.8908644999999993
  1.2528595800000000 -0.0260249200000000  2.3489046500000001
  1.7673792900000000  2.1786860799999999  4.3743442699999999
  2.0329258600000002  4.4436264200000002  6.6424592300000000
  2.1575021500000000  6.6207633899999996  8.3347680099999994
  2.5467301199999999  8.7469040200000006 10.6913575600000001
  2.5413270500000000 10.7646256699999991 12.8558156599999993
  2.6795500099999998 12.9550251700000008 14.6111887300000003
  1.7756435900000000 15.3674116999999999 17.4236569599999989
  1.9316559200000001 17.3615396100000012 19.2460984300000000
  2.1758733900000000 18.8983259600000011 21.4307459899999984
  4.0298242100000001 -0.1690685300000000  4.0370407300000002
  4.3277940900000003  1.9136519900000000  6.0688465100000002
  4.2482186400000002  3.8732317900000002  8.5497519999999998
  4.5112126600000000  6.2852233699999998 10.3827014500000008
  4.4538093700000001  8.3345152299999992 12.8590298900000004
  3.9565673100000001 10.8336354700000008 15.1138878299999995
  4.3655181799999996 12.9742996200000000 17.4656835400000006
  3.8897737900000000 14.8625209900000002 19.2654253299999993
  4.1307545200000000 17.3643920999999999 -0.1558949200000000
  4.4234367800000003 19.1903411400000010  2.3988662299999999
  6.0320904100000003  0.1243702600000000  5.9615330100000001
  6.2702312500000001  1.7387427300000000  8.8158720299999995
  6.3367497600000000  4.3447826100000002 10.3324411499999993
  6.1559033000000003  6.0324997299999996 12.8003831399999992
  6.5147209600000000  8.7064134600000003 14.8139924399999998
  6.2480652900000004 10.7676473799999997 17.0287984299999984
  6.2723190700000000 12.9347897500000002 18.4303268299999985
  6.0947281499999999 14.9012373900000004 -0.0770914500000000
  6.5438421399999998 17.2628559700000004  1.9700309499999999
  6.7912598099999997 19.1823207099999991  4.2973899099999997
  7.7724571200000003 -0.1373624600000000  8.5285708699999994
  8.4554311099999993  1.9771970699999999 10.6843884199999994
  8.1436905399999997  4.6075171299999997 12.6609759799999999
  8.4440284699999992  6.3411750800000002 14.7646319699999999
  8.2612604399999992  8.3469567799999993 16.9534087100000015
  8.8648226799999996 11.0317729799999995 18.9579013299999986
  8.4941871199999994 12.7906464199999998 -0.4189967800000000
  8.3655986099999993 15.1085020900000000  2.1336341499999998
  8.2626725499999996 16.6157673300000006  4.3955779200000000
  8.2388147800000002 19.4311966100000006  6.5615888299999998
 10.3045472000000000 -0.5287593600000000 10.8242892400000006
  9.7175536499999993  2.1375523300000001 12.5867964600000004
 10.6000069999999997  4.6066678599999999 14.8107254000000008
 10.5079282099999993  6.2914069799999996 16.4471979300000015
 10.5047211199999992  8.3441297700000003 18.5525943499999997
 10.5418660800000001 10.0405903100000007 -0.1804707400000000
 10.2415448599999994 12.6324353899999995  1.7666002100000000
 10.8111815100000008 14.9515624999999996  3.9707378000000002
 10.4008141700000003 16.6768900799999997  6.6461362700000004
 10.6861336399999995 18.4577764500000008  8.2760486199999992
 12.2534913999999997 -0.1387435900000000 12.6041211099999995
 12.3841666200000002  1.9815828900000001 14.7340698200000002
 12.9339535100000003  4.1038931999999999 16.5400972999999993
 12.6622827400000002  6.2908593399999999 18.5346867400000015
 12.9151639800000009  7.8733838000000000 -0.1449147100000000
 12.3429144900000001 10.6049938200000007  2.0712475200000000
 12.6416291800000007 12.7620783400000004  3.9361058999999998
 12.7167603600000003 14.5585808399999994  6.4170113100000004
 12.5964705499999994 16.3556594299999993  8.7365580499999993
 12.4485688000000003 18.8288067999999988 10.1219219900000006
 14.7259801299999999 -0.2598256800000000 14.7560472600000008
 14.9402618599999997  2.3856510800000001 16.1716762600000017
 14.8580914800000006  3.8438374000000000 18.7554836199999997
 14.3851625900000002  5.8953243700000000 -0.4810679100000000
 15.1120054699999997  8.0753347899999994  1.4272244400000000
 14.8467383799999997 10.4620789799999994  3.9637833599999999
 14.6638708700000002 12.9887074800000004  5.7983339599999999
 14.6616130600000005 14.5224220200000005  8.7027804300000007
 14.2556245900000000 16.6226043300000015 10.5584725800000001
 14.2258593900000001 18.4897963599999997 12.5377969900000004
 16.8038379300000003 -0.3406353900000000 16.9051817100000008
 16.4214202299999990  1.8422112100000001 18.5778923599999999
 16.8279206499999994  4.4480504700000001 -0.2957999600000000
 16.6326220199999995  6.2705638800000001  1.9990917399999999
 16.0701845100000007  8.3064350600000001  3.9350131899999998
 16.9731113299999983 10.0837132199999999  6.3536760000000001
 16.7213494300000001 12.0179858500000005  8.4733016600000006
 17.2504606900000006 14.4981771100000003 10.5333878700000003
 16.9628744699999991 17.0670691599999991 12.1527553299999997
 17.0592916800000012 18.8154698399999987 14.3239639099999998
 18.4340493999999993 -0.3555017500000000 19.2014060800000017
 18.6825831499999993  2.7243397800000002 21.2396725300000000
 18.9906049900000014  4.4081907700000000  2.9161786400000000
 18.8546047799999990  6.3585498899999999  4.2876830200000002
 18.6746646500000004  8.5406832700000006  5.9092719100000002
 18.1053519099999995 10.3004426400000000  8.6303172600000000
 19.0229392500000003 12.1878879100000006 10.9525286000000008
 19.6547071600000010 15.0512954299999997 12.6048412899999995
 19.3535364600000008 16.8742148000000007 14.9323530299999998
 18.1948208300000012 19.0856970299999986 16.2377094100000008
  1.6911771900000001  1.7092802499999999  0.4691505600000000
  1.7248437400000001  4.1920322800000003  1.4462386000000000
  1.8654657200000000  6.2992302200000001  4.0313174600000004
  2.2959073399999999  8.8160962099999995  6.0333029099999997
  1.8770859300000000 10.4835856900000000  8.6854199399999992
  2.1946408399999999 12.3357063900000004 10.4711737500000002
  1.7840638700000000 15.0513995299999994 12.1152488100000006
  1.8918608900000000 16.9430581800000013 15.1244524499999997
  2.3560392000000001 18.9174860000000002 17.0483319000000009
  1.8774017400000000 21.0217117500000015 19.1452269199999989
  4.2339544599999996  2.1535986399999998  2.1352098800000001
  3.6343953999999998  4.1668618000000004  3.7490321299999998
  4.4555069100000004  6.2924371199999998  6.0274441200000002
  4.2844300799999999  8.7188430799999992  8.5431331299999993
  4.5809904799999996 10.2032703599999994 10.7760839900000001
  3.6115731700000002 13.0372551100000003 13.1284180700000004
  3.9661122400000002 15.2336487700000003 14.8301988900000001
  3.9592705800000001 17.2344351499999995 17.2248928600000006
  4.2878370500000003 19.4664271900000010 19.3150593800000010
  3.9970325199999999 20.9909584100000011 21.5079460299999994
  6.1763825499999996  2.2348031900000001  4.6981949900000002
  6.2555973700000003  4.0463808400000003  6.6128248100000002
  6.3403229699999999  6.3341896599999998  8.2944539000000006
  6.7477642600000003  8.4040607200000004 10.6100666599999993
  6.0886141100000000 10.8516428600000001 13.0175485500000008
  6.0873563500000003 13.2369323199999993 14.9587614900000005
  6.1185557199999998 14.8913055900000000 17.1919643200000003
  6.2455665400000004 17.1579342900000000 19.0373921400000015
  6.6114100699999998 19.5575658899999993 -0.1996193300000000
  6.5556639499999996 21.4735034200000001  2.2682857099999998
  8.7959841700000005  1.9933757800000000  6.2078099399999997
  8.2923095599999996  4.0098418799999997  8.3638967599999994
  8.4203143300000001  6.4179047200000001 10.3520221499999998
  8.1147186500000004  8.7102362299999996 12.8714442299999998
  8.1984224500000007 11.4029838100000003 14.8444763300000009
  8.6358879700000006 12.7638465599999993 17.1557879000000000
  8.5946648000000003 14.5652922999999994 18.5009943700000008
  8.1458322200000008 16.5539622000000008 -0.3436349300000000
  8.8861268800000008 18.8512535200000002  2.4433504699999999
  8.8002887500000000 21.0634173699999998  3.8744829400000000
 10.9421735299999998  1.6314260899999999  8.5128880000000002
 10.3431123899999999  4.5529234599999997 10.4269447500000005
 10.8019536200000008  6.5812635500000001 12.8613330000000001
  9.9590874300000003  8.7074016699999994 14.6894049199999994
 10.4469315399999996 10.4513941100000007 16.6074817199999991
 10.9955794600000001 12.4953437100000002 18.9875308499999988
 11.0809127400000005 14.9133968100000001 -0.4708543900000000
 10.5117604100000008 16.6891022900000010  1.6365349400000000
 10.2017494099999997 18.5229865899999986  4.1141239799999996
 10.4309939000000007 20.8300379199999988  6.1205228199999997
 12.2811029000000005  1.5895643900000000 10.4048815500000007
 12.6804841699999997  3.0792439300000001 12.5046255199999994
 12.3909747299999999  6.0333254800000002 14.3855305100000006
 12.6710567500000000  7.9751859300000003 16.8501535800000006
 12.3310778600000006 10.4995386699999997 19.1174857399999993
 12.4095806900000003 12.7086483099999992 -0.3559579800000000
 12.7508413300000001 14.8750119600000001  1.9443116899999999
 12.4605052100000009 17.1978886899999992  4.2414192300000000
 12.5295447600000003 18.6238674400000015  6.8117833000000001
 12.4297308599999994 20.7697563400000007  8.3442785300000004
 15.3282342299999996  1.4394178799999999 12.4898629000000003
 14.6855348200000009  4.2869624999999996 14.4149496100000007
 14.6271576999999997  5.7695849399999997 16.8680466899999999
 14.9980090399999995  8.3991332300000003 18.8577664899999995
 14.8846327100000000 10.6723243700000001 -0.5991071900000000
 14.4710059799999993 12.6531918200000000  2.1940596600000002
 14.6549007400000004 14.8649314300000004  4.0286255400000002
 14.9772707100000009 16.3414919900000015  6.0986530999999999
 14.2916226999999996 18.6145992800000002  8.1516706600000006
 14.8426013399999999 20.8577000400000010 10.3810453200000001
 17.0930898900000017  2.4889443299999998 14.3218580400000004
 17.2636002200000007  3.9229412300000002 16.2834725099999993
 16.4766905199999982  5.9727007099999998 18.2895744799999989
 17.1919488300000012  8.0744772299999994 -0.4044895600000000
 17.0378767000000018 10.3914293600000001  1.6589989500000000
 16.6993649899999994 12.0876646399999998  4.4512645900000001
 16.5175267400000010 14.8076303800000009  6.5024374199999997
 16.6000270199999989 16.4271296199999988  8.6602218000000004
 16.4169441700000007 19.0372606100000006 10.3193200100000002
 16.8649121499999985 20.5551068699999995 13.1182341099999995
 18.8241495800000003  1.9451524700000000 17.0621046900000017
 18.6531783199999985  4.2554940400000003 18.8884195000000012
 19.2869289799999990  5.6915681200000003  0.2166901000000000
 18.8609720299999992  8.5193050899999996  1.9156235399999999
 18.8624346900000006 10.5245144400000008  4.2717654899999999
 18.7414242000000009 12.5522710899999996  6.7440171199999996
 19.0167434100000001 14.2292298200000005  8.6807686600000000
 19.4682156000000006 16.8188008999999994 10.7953673699999992
 19.1868270800000005 19.0479751600000000 12.6940939900000007
 19.0603132200000012 21.8606359899999987 14.3643384899999997
 20.5230340099999999  2.0214863900000002 19.0411845900000003
 20.8482313899999987  4.3416340099999999 20.9236341699999997
 21.2945457699999992  6.6036690000000000  2.3346511699999999
 21.2343088800000004  8.5133248899999998  4.1928104199999998
 20.4395884999999993 10.4558281999999991  6.4367920500000002
 20.9571899200000011 12.3934511199999999  8.7735956000000002
 21.6185921699999994 14.4888810699999997 10.8083669199999992
 21.3766806100000011 17.1517697499999997 12.6134181299999995
 21.1351254600000011 19.3247459299999989 14.7312426399999996
 20.5854031400000004 21.1813239700000011 16.6320760099999987
  4.2804367799999996  3.9221825699999999  0.2410563000000000
  4.2707644299999998  6.4261511200000001  2.1594807800000000
  4.2753660099999999  8.2478563800000000  4.3333488200000003
  4.2176142900000002 10.7316851799999995  5.9877464399999996
  4.3670541399999996 11.9703331599999991  8.2601659400000003
  4.0779525400000001 14.1187761799999993 10.1454264799999994
  3.4791352400000002 16.7687868999999985 12.5222699100000003
  4.2753606399999997 18.9936302999999995 14.7189758499999996
  3.7587431200000001 -0.0039670200000000 17.3851702999999986
  4.2149256199999998  1.8949174300000000 19.2948176700000005
  6.8799534800000002  4.2759575400000003  1.8809424800000001
  6.2103810700000004  5.5950108600000004  4.4028402499999997
  6.2492669999999997  8.5462444699999995  6.0513229199999996
  6.3528346100000004 10.4432208699999993  7.8457088800000001
  5.8816598700000000 12.7891737400000007 10.3206060399999995
  5.6953345899999999 14.8800334599999999 12.6007232200000008
  6.1179520500000004 16.9022814299999986 14.7942997599999995
  6.5857164700000004 18.8993935999999998 17.4170530300000017
  6.4252344099999998  0.4103041800000000 18.9599120600000006
  6.1033713499999998  1.7633340099999999 20.9487731699999991
  9.0314224000000003  3.9969628600000000  3.8754109799999998
  8.3679779500000002  6.2108007100000000  6.5626954800000004
  8.5596041899999999  8.1917189799999992  8.1270941800000003
  8.5517341899999995 10.6811656599999996 10.5752144799999996
  7.8547763499999999 12.8148578499999992 12.3268170900000005
  8.2260735300000007 14.8526143000000008 14.8768886200000008
  8.9017943699999993 16.2432969599999986 17.0167801300000008
  8.4769760600000001 19.1252277100000008 19.0272038899999991
  8.4239095299999995  0.1402725200000000 -0.0033073000000000
  8.7873651000000006  2.0470953299999999  2.1230826700000001
 10.5054784399999992  3.9541402400000001  6.1771028399999999
 10.7674274299999997  5.9693762200000000  8.4896046799999993
 10.5660388500000000  8.1633504600000002 10.6867505499999993
  9.8395170699999994 10.5941519599999996 12.6507505299999998
 10.2996938900000004 13.2213321500000003 14.4243075699999999
 11.0732248299999991 14.5865715900000001 17.2142963500000015
 10.6798947299999991 17.3290300399999992 18.9469189699999987
 10.2808130000000002 18.9487328700000006 -0.0277633800000000
 10.6287680400000006 -0.1438900700000000  1.8681401700000000
 10.9739306800000005  1.4923337500000000  3.9217262300000000
 12.5319092199999993  4.2075056300000000  8.3554042600000002
 12.9546195500000003  6.3117523000000002 10.7298664800000001
 12.7914508599999994  8.8175457399999999 12.3612677600000005
 12.3965599199999996 10.6380282099999999 14.8365760099999999
 12.7292340399999997 12.5545179099999995 16.2970303100000002
 13.0490095700000008 14.7777937799999997 18.8608986899999991
 12.7427822099999997 16.8680690899999988 -0.2538037700000000
 12.4012039800000000 19.0037039999999990  1.4244441900000000
 12.6726122300000004 -0.5461008000000001  3.8814812600000002
 12.4819884600000002  1.7039556000000000  6.2951483599999998
 14.7089964299999991  3.3950635000000000 10.5728097400000003
 14.5608264999999992  6.1307151600000003 12.4019109600000004
 14.1990918300000004  8.1642242500000002 14.6621248499999997
 14.2226777000000002 10.7593998899999992 16.1373691000000008
 14.2598823299999999 12.3263067599999996 18.9572022300000000
 15.1110482000000008 14.6096823100000002 -0.0131167000000000
 14.8862088999999997 16.7597965699999989  2.2434004399999998
 14.4722939499999992 18.3488134199999990  4.1712586700000003
 14.6005490899999995 -0.4970003300000000  6.5835526000000000
 14.4095214400000007  1.7383590499999999  8.6492087200000007
 17.1474249599999986  4.5313677900000000 12.4499786599999993
 16.7266011500000005  6.4377544799999997 14.8885422799999994
 16.6372783499999990  8.5595958099999994 16.8671598399999993
 16.8700221799999994 10.7366601100000008 18.5618404699999999
 17.0323524100000014 12.9622179099999997 -0.4020855200000000
 16.8245859399999986 14.1309006900000007  2.9661102399999999
 17.1366758399999988 17.2801225299999999  4.1248645599999998
 16.4914244600000011 19.1773439900000007  6.7345817700000001
 16.9119748100000002  0.0639351100000000  8.3395173200000006
 17.3184376299999983  2.0378036399999999 10.6559477900000008
 19.2332974999999990  4.5205891600000001 14.8902105700000007
 19.5239096900000000  6.7392426600000004 16.9896687399999990
 19.1968393299999995  8.0804364199999998 18.5732527999999988
 18.5000093499999991 10.9770854100000008 -0.2294178300000000
 19.0274786499999990 12.2577789100000007  1.9898434000000000
 18.8336124100000006 14.4691501799999998  4.4510601200000002
 18.6999235299999995 16.7568453200000000  6.7187241499999999
 19.0216091499999997 18.7802051299999988  8.3833169800000000
 19.0746993899999993 -0.0449062100000000 10.3929630199999998
 18.9909274000000003  2.5795127500000001 12.0822248400000003
  0.0529922000000000  4.0535380600000002 16.8830427900000011
 -0.2071686200000000  6.2394774899999996 18.8816838900000015
 -0.0536539100000000  8.3569017500000005 -0.1932551600000000
 -0.3927579500000000 10.2228257399999993  1.9589011199999999
 -0.2612268800000000 12.6661527199999995  4.4915825600000003
  0.3750890800000000 14.2287473900000006  7.0060579000000001
  0.3326607900000000 16.6396995600000004  8.1157895500000006
 -0.0849796000000000 19.0187166099999985 10.3794701899999993
 -0.0367801500000000 -0.1358288600000000 12.6319528400000003
  0.2459491500000000  2.0648215200000002 14.5143702799999996
  1.9158402600000000  3.9576896700000002 18.9254952299999992
  1.9144544900000000  6.4308229299999997 20.6125094599999983
  2.9026449599999999  8.9201651000000002  1.8793816500000000
  2.0644974899999999 10.7255413100000005  3.6114529599999998
  2.1328317100000000 12.0343283700000008  6.1592998300000001
  2.5597407900000002 14.3128981100000008  8.2726409200000006
  2.5164320600000001 16.7507181299999992 10.0881331500000009
  2.1851103099999998 19.1924228700000015 12.7621476800000000
  2.1131209399999999  0.4835130900000000 14.5313602300000007
  2.0189214600000001  1.9782601399999999 16.8200567399999983
  6.6529494299999996  6.0624558899999998 -0.1180591400000000
  6.9380338799999999  8.2897776400000005  2.5151757500000000
  6.2615216699999996 10.3552693799999993  4.3171118899999996
  6.1989839800000004 12.5533106799999992  5.9790702600000003
  5.8279172700000004 13.8184087400000006  7.9293350000000000
  5.6602091400000001 17.0502796399999994 10.0327369300000004
  6.1468167899999999 18.4257121400000017 12.5726398699999997
  6.6028782899999996 -0.1467628900000000 15.2764925799999993
  6.4462250699999997  1.9103699599999999 17.2149488700000006
  6.3388125200000003  4.2001886400000004 18.6423909899999991
  8.1844390800000006  6.1589630399999997  2.2057261499999998
  8.0867847499999996  7.9958169899999998  4.8018673800000000
  8.4450007899999999 10.8025304799999997  6.2881226699999999
  8.0118067499999999 12.4991381399999995  7.7535139199999996
  7.7765820999999997 14.9049601500000009 10.1440706899999995
  8.1744523299999994 17.2007738500000009 12.7393467800000000
  8.5543106200000008 18.4970647799999988 15.3703495399999994
  8.7686445499999994  0.2331924500000000 16.8698669099999989
  8.6120910300000002  2.2991035300000000 18.7285686700000014
  8.6485709899999996  3.9588453800000001 20.6539618099999984
  9.9730944200000007  5.9182003300000003  4.0151527299999996
 10.1054690600000008  8.3401812999999994  6.0418727900000002
 10.2195813500000003 10.5993055399999996  8.5617479099999994
 10.1827907900000003 12.9318366800000000 10.3815815300000001
 10.2271137700000008 14.4131886100000006 12.3160722099999997
 10.0154086899999992 17.1338145699999984 14.9903925299999994
 10.9950602800000006 18.7212688699999994 17.4301811300000011
 10.4844800300000003 -0.4316051200000000 18.9321455999999984
 10.9010417099999994  1.8541846099999999 -0.4042942500000000
 10.8735575000000004  3.9586926199999999  1.7353949399999999
 12.0282740100000005  6.6661472100000001  5.6836106900000001
 12.1009494699999998  8.8785767399999997  8.6286533999999993
 12.3096509199999993 10.9800863599999996 10.9500163500000003
 12.3285595699999995 12.2809526000000009 12.9859284499999994
 12.6683405800000006 15.2397737400000004 14.4931879400000003
 12.4641500199999999 16.8816425899999984 16.9490636300000013
 12.7523138700000001 18.5986591799999985 19.4778967899999991
 12.4225946500000006 -0.0469987300000000 -0.3434122800000000
 12.6946213100000005  2.0860567300000001  1.6876181400000001
 12.9408553200000007  4.2729693099999997  4.6111703700000000
 14.2921317400000003  6.6332134099999998  7.9378604299999997
 14.2936406999999992  8.7449343099999997 10.7183300999999993
 14.9772576999999991 10.4202081799999995 12.9239008399999999
 13.9520636600000003 12.7959703000000005 14.1536722899999994
 14.9724241700000000 14.3707198100000006 16.3781828300000001
 14.6269992900000005 16.8198568199999983 18.8810982699999990
 14.7051765200000002 18.9361438000000000  0.2284604600000000
 14.9208691400000006  0.1417415800000000  2.2105372200000000
 14.8046745600000005  1.7322566800000001  4.4329473400000001
 14.1309093499999996  4.3354788800000001  6.4597237200000004
 16.0677924700000005  6.2481120600000004 10.4996292600000007
 17.0270546500000002  8.3048020699999991 12.6385257499999994
 16.8409153700000012 10.4252099200000004 14.9646949100000004
 16.7011010499999983 12.8739384000000001 16.8699276000000005
 16.4944260800000002 14.5460803999999992 18.5298234199999996
 16.4711923700000007 16.1112762300000014  0.2174730900000000
 16.8268882099999999 19.0413195000000002  2.2720668800000001
 16.5803210900000018 -0.1182620200000000  4.1206355400000003
 16.4718450999999995  2.3723429899999999  6.4668296400000003
 16.3006373999999994  4.3151622999999999  8.5757213300000004
 18.7043083500000016  6.6378572299999998 12.5884669999999996
 19.5205142100000018  8.7066187999999993 14.5659465200000007
 19.2284402499999985 10.1546596299999994 16.9378737299999997
 19.2212674399999983 12.8491329400000005 18.8575969999999984
 18.6182909000000016 14.7667499400000004 -0.0401965600000000
 18.6387414900000010 16.5939193399999994  1.9734393699999999
 18.8232243600000011 18.6601530699999998  4.6339208300000001
 18.5382301900000002  0.2895310200000000  6.3755672700000003
 19.1913888399999983  2.1346381800000001  8.6827564800000001
 19.0734693399999991  4.7204241500000004  9.8621665000000007
  0.6038265400000000  6.3119398000000002 14.6461688999999993
  0.9167020900000000  8.1247678499999996 16.7096836400000015
  0.1955798900000000 10.4470145399999996 18.9237945699999983
 -0.3626121700000000 12.6487059500000001  0.1098667400000000
 -0.3784793300000000 14.6728148500000000  2.0202542800000001
 -0.4586821900000000 16.3457486400000001  4.1286044100000003
  0.0618226600000000 19.3499394000000002  6.3993536600000001
 -0.2733519000000000  0.0226233900000000  8.3633460100000008
  0.5532515800000000  1.7723477400000001 10.3995502900000005
 -0.1064506700000000  4.6652491300000003 12.7440516600000002
  2.6352051300000001  6.1322337300000003 17.1616902099999997
  2.7643045300000000  8.6368753100000006 18.9452202000000014
  1.7568724600000001 11.0622620000000005  0.2864258300000000
  1.7688068100000001 12.7648215900000004  2.1617456300000000
  2.1411293400000000 14.6639276100000000  4.3839609499999996
  1.4552843600000001 16.6517288999999984  6.3315863800000001
  2.2835423200000000 19.5903566799999993  8.1378693000000002
  2.1880132699999999  0.1822427100000000 10.9370836699999998
  2.2813785100000001  2.5099135600000002 12.5764048600000002
  2.4702797400000001  4.0234237899999998 15.0754053199999998
  4.2865663500000002  6.0613825300000004 18.9779203599999988
  4.9491723800000003  8.7256447300000008 20.9131057200000008
  4.6190888200000000 10.0502224400000006  2.1668538499999999
  4.3346863800000000 12.7569561599999997  3.6291435399999998
  3.9664145999999998 14.4844515099999995  5.9476060799999999
  4.0885412299999997 16.5548614500000006  8.3219987799999995
  4.0895951400000001 18.9455747599999995 10.9245559799999992
  4.2680099900000004  0.5525228900000000 12.8774188499999998
  4.8815210999999996  2.0700997000000001 15.1156850400000007
  3.9295431000000001  3.9940111800000002 16.8135379399999998
  8.1651635999999996  8.0930055000000003 -0.1033602800000000
  8.5371534899999997 10.9042005700000004  1.7553290100000001
  8.5025011199999998 12.8835889800000007  4.4653546899999998
  8.5020570499999994 14.4888835100000009  6.1661149000000002
  7.8273735100000001 16.7578717799999986  7.5819847899999999
  8.1629324400000005 18.2001553399999985 10.0914047100000008
  7.8967378400000001 -0.3953899100000000 13.0837109700000003
  8.7580577200000000  1.9902454199999999 15.1229904800000003
  8.5175616000000005  3.7798354000000001 16.8042700600000003
  8.2316692400000004  5.9173985199999999 18.6126596800000002
  9.9142843500000009  8.3186406399999999  1.6449638499999999
 11.0845093000000006 10.1665973500000000  3.8406034199999999
 10.7573879899999998 12.6662375199999993  6.1089295100000003
 10.1843480199999998 14.0200577400000004  8.1943548300000000
  9.8886146999999998 16.8417406700000001  9.8930325400000001
 10.6263807000000003 18.8613962099999988 12.1655051200000006
 10.5842378600000000 -0.6989035300000001 14.6354859299999998
 10.8033286299999993  1.8973705500000000 16.7102931699999999
 10.7781736000000006  4.0355595199999996 18.6588794200000017
 10.1672654100000006  6.5296809400000004 20.7922757699999998
 12.7881353600000001  8.2031112099999994  3.4914994600000000
 12.9269429400000000 10.0148572900000001  6.1053534999999997
 12.6024405599999998 12.1581036200000003  8.7886470499999998
 12.7023772000000008 14.6782305799999993 10.7609589200000002
 12.1115520599999993 17.0238596400000013 12.3295247499999991
 12.6022273899999995 18.4464715999999989 14.4834830599999993
 12.8172401100000002 -0.0341312300000000 16.8594163500000001
 12.8013889400000007  2.0400037400000000 18.2738249999999987
 12.6222462400000008  4.1399844100000003 -0.5503589900000000
 12.5810826900000006  6.3523626999999996  1.8487438300000001
 14.7440287500000000  8.4673047700000001  6.1812806100000000
 14.6558335399999997 10.6153836600000009  8.1204220199999995
 14.3852328400000005 12.4069552499999993 10.8517936899999992
 15.1221868799999992 14.6433612199999992 12.1865647700000004
 14.6771691499999992 17.0622182100000011 14.5442248400000000
 14.3462577600000003 18.7449478399999983 17.0052192700000013
 14.8379836100000002 -0.4062304900000000 18.8219275199999991
 14.5743934199999998  1.7657019899999999 -0.3668395800000000
 14.6721714700000003  4.1856792699999996  1.9310792100000000
 14.7406728400000002  6.3110647999999996  4.2684785999999999
 16.7097707200000016  8.5331311000000003  8.8880458699999991
 16.9862671100000000 10.3944858199999999 11.0131819800000006
 16.9930767100000004 12.4993617500000003 12.8692052700000001
 16.8663586000000016 14.6815490900000007 14.6415462099999996
 16.8672811799999991 16.6394211600000013 16.7626114299999998
 16.8905873799999995 18.4627850000000002 19.0868425299999984
 16.7592754399999997  0.3903206300000000  0.3392008500000000
 16.6930391600000014  2.5362168100000000  2.1516090399999999
 16.5529392000000009  4.3159298200000000  4.3750801800000003
 16.3967255399999985  6.9037350899999996  6.5709361399999997
 19.2667717900000000  8.4270026300000005 10.4726777500000008
 19.2186782399999991  9.9190818499999995 12.5190929700000009
 18.9838427600000017 12.3667778399999992 14.3875055199999995
 19.0307227099999992 14.4913419500000007 16.1525895199999994
 18.8798034699999988 16.7300596000000006 18.8544131399999984
 18.4955803000000003 18.7821015600000010  0.4185752800000000
 18.8224374599999997  0.2019304600000000  1.8376750300000000
 18.5234715799999989  2.0887238600000000  4.8112102400000003
 19.0617816200000014  4.3726388800000002  6.4601158400000003
 18.8298123400000001  6.6736795700000000  8.0870575999999996
  0.6977779300000000  7.7583972299999999 12.7863289699999996
  0.7741310800000000 10.7755844900000000 14.6529518099999994
  0.1368484200000000 13.0535582100000003 16.6112138199999997
 -0.3938076900000000 14.6609771799999997 19.0340877299999995
 -0.4921071700000000 16.8700051699999989  0.3530079400000000
 -0.7259444200000000 18.7689999000000007  2.2636612000000000
 -0.3567137900000000  0.2322507900000000  4.1421666000000004
  0.0921745000000000  2.3851766900000002  6.7622892800000001
  0.5359116000000000  4.4520858800000003  8.5329751399999996
  0.4589758200000000  6.3412861800000000 10.6389152100000004
  2.5725933200000002  8.8652731800000009 14.5779086699999993
  2.2161266099999999 10.8081850300000006 17.1724996899999987
  2.2681970599999999 13.0343966699999996 19.1821625800000000
  1.7618146299999999 15.1940665599999996  0.5060618500000000
  1.7214276600000000 17.3490724999999983  2.4570824700000000
  2.1802301100000001 18.8088220100000001  4.4350349500000004
  2.4344329800000000  0.3824838700000000  6.0123233100000002
  2.1505983199999998  1.6527429100000000  8.3813270899999992
  2.5575740900000001  4.2699757900000002 10.4306001899999998
  2.8957303799999998  6.3635037600000004 12.4657687100000008
  4.3388682599999999  8.5393511899999996 16.7753504299999996
  4.1781620000000004 10.6943068500000003 18.6060000599999995
  4.7137635900000001 12.6420189500000006  0.0931659400000000
  4.4885348100000000 14.9233040700000004  1.5568071699999999
  4.3547556099999998 16.3381980800000015  3.6581635900000000
  3.7985757800000002 19.1667567400000003  6.4534244000000003
  4.1392567199999997 -0.0248062100000000  8.5903191999999997