Li                                      
   1.00000000000000     
   -11.0705700000000018   19.1747897087477881    0.0000000000000013
   -18.9781199999999970  -10.9570226907130195    0.0000000000000076
     0.0000000000000001    0.0000000000000001   23.2203000000000017
   Li
   504
Direct
  0.9969373301960331  0.9854743926401426  0.0083164562904017
  0.9114538731612214  0.0377294223767990  0.6702754469149852
  0.8509402705991107  0.0923320633715861  0.3305017041123506
  0.7946006897525848  0.1190597441709613  0.9963571090812806
  0.7169931564646319  0.1630745886229690  0.6640750868851839
  0.6448788563796697  0.2175666835771395  0.3213553774068387
  0.5706267657579076  0.2469909793911924  0.9899792371330278
  0.5014725919520444  0.2915927524809376  0.6408089115989029
  0.4213757330661352  0.3442374882649091  0.3306735662329956
  0.3608226076337502  0.3736793889283021  0.9998196664125771
  0.2803788611617009  0.4097323997840192  0.6700559811888738
  0.1964926050727982  0.4503772202441141  0.3384661472935306
  0.0498453452561449  0.0498119643129940  0.6691997652915802
  0.9987307646030956  0.0983322120056087  0.3317342299625778
  0.9407625228073897  0.1374891869102015  0.0017272395274830
  0.8644029129226425  0.1684939258623075  0.6763769718737507
  0.7769869937939546  0.2062894352082552  0.3248599324728758
  0.7072630015802233  0.2339160150002186  0.9975043681606195
  0.6577691757994373  0.2883182030396085  0.6553129679633756
  0.5661129831019593  0.3291291114536605  0.3417226805855194
  0.4988854917918530  0.3729433021360364  0.0141044801316070
  0.4215410653353686  0.4076994095479520  0.6625392953579379
  0.3481146737438863  0.4598010696681811  0.3373822125467782
  0.2798570090944210  0.5014291658409533  0.9836312498115873
  0.1347109856989164  0.0859546748071551  0.3296874954242597
  0.0759351708757237  0.1153611814741566  0.9862610220367500
  0.9933648171606606  0.1798688740552663  0.6706807336683838
  0.9172929126412370  0.1947299600856809  0.3399452190540160
  0.8597328751098985  0.2579928978631543  0.0004430761015115
  0.7921649942635227  0.2972095971284858  0.6771887447621268
  0.7061578599887426  0.3253626945105452  0.3437628463025888
  0.6399429525954119  0.3606559494452455  0.9835500562008264
  0.5800476520704478  0.4155683289186953  0.6709001860441077
  0.5002861841252511  0.4426568805871440  0.3261307575698851
  0.4239665656141725  0.5104801675671098  0.9987564152917940
  0.3697071848271847  0.5484913632576749  0.6572018134993982
  0.2297152400075646  0.1155785112239514  0.9906048939936198
  0.1457898473502652  0.1527456802686231  0.6717165592175789
  0.0682054356422270  0.2069424769335555  0.3286849299965979
  0.0065119373108402  0.2474624489762292  0.9754914256060445
  0.9340584762711615  0.3018606186675399  0.6722172379340492
  0.8413550209884519  0.3335035749218491  0.3472099705860785
  0.7781482359453236  0.3659318748954519  0.9907394219712913
  0.7172002651514120  0.4382206251526881  0.6725524816647521
  0.6398618562547966  0.4463893125347198  0.3439014422724966
  0.5666432916393163  0.5030610616265747  0.9952501337192032
  0.5004589200838083  0.5263430799830431  0.6646114628148609
  0.4302404979742320  0.5941882604990028  0.3199227236512883
  0.2873733466933075  0.1713479148249419  0.6888293282171176
  0.1988279233651369  0.2086306739778010  0.3295795829511263
  0.1457284619642181  0.2481253812723665  0.0063078362467337
  0.0730381156261828  0.2972624041945267  0.6832983992454871
  0.9834022487113501  0.3245852891373673  0.3555548261650330
  0.9406291454813314  0.3590558986300394  0.9993888416600996
  0.8494290459471472  0.4285226416952170  0.6624953566491385
  0.7787647527897548  0.4511317359521527  0.3345551220268490
  0.7189119460329394  0.4910839117681931  0.0083646287946308
  0.6461199727248541  0.5482904483453268  0.6529068754494958
  0.5628462116067752  0.5765899254073830  0.3341511608377132
  0.5155014528945827  0.6114598648669514  0.0023212675977504
  0.3498133906364984  0.2105298170746792  0.3401998225690477
  0.2953002287680278  0.2416732329865923  0.9865282550182357
  0.2217657354747118  0.2881440544071694  0.6694049344754376
  0.1415677612591679  0.3454661962953693  0.3419845540324644
  0.0823618258034173  0.3649534059282686  0.0047666042213095
  0.0027599912243730  0.4260053147493608  0.6730954354594871
  0.9184921260680667  0.4544889653935513  0.3478113185445508
  0.8508017697007304  0.4812467279374459  0.0008854110412031
  0.7848182745565779  0.5492496724776856  0.6732867667515094
  0.7165157848693582  0.5816379629541188  0.3509992674513214
  0.6532612894313559  0.6093687645066979  0.9993314638484421
  0.5503919809392173  0.6650023868314534  0.6700690499261412
  0.4237347036410739  0.2490373910541308  0.9963455437698912
  0.3488684459204734  0.2946042157308639  0.6520726743409853
  0.2701150716351464  0.3500442779057238  0.3347091527671893
  0.2403890777495192  0.3643031895434632  0.0094506922821864
  0.1402021168549368  0.4126216222265029  0.6736589841647174
  0.0613880797500670  0.4441539665657785  0.3569733698531010
  0.0064882935848019  0.5046944092296215  0.0100104012437399
  0.9353744018073584  0.5439328120268740  0.6846604906052036
  0.8571290566379375  0.5839483557620966  0.3436954311529163
  0.7927493107368591  0.6326562653748553  0.0044610663944908
  0.7030332783208877  0.6678043020077382  0.6692344874958565
  0.6524350298296255  0.6902406519623128  0.3258485209062769
  0.1392277856743860  0.4937625561829435  0.0108271456441145
  0.0910357583454058  0.5557290693037089  0.6805841548128129
  0.9923076012697791  0.5831304343428556  0.3428899329466049
  0.9380911026112315  0.6196301478842585  0.9917086557882513
  0.8535772638242918  0.6720267824433961  0.6766726984578142
  0.7991036386851320  0.7026805268741825  0.3398769929759737
  0.7339642066716010  0.7448946640946303  0.0034640129541827
  0.2314382213757469  0.5400566926325823  0.6637253971740265
  0.1379176936675179  0.5721209091319466  0.3144485945487361
  0.0778211687591792  0.6260522387765377  0.0075147457181828
  0.0016173790968850  0.6724117774306109  0.6807657777892615
  0.9286185219638412  0.7065068820991129  0.3347894949677652
  0.8607910898623388  0.7556398307262597  0.0105142504618811
  0.7668891567899365  0.8040936292697083  0.6706225668919004
  0.2951798470460787  0.5940553247996689  0.3379045253506661
  0.2111645663701154  0.6289097922491820  0.0131780179412004
  0.1526613758073196  0.6750739937796126  0.6698587951060091
  0.0727384331077232  0.7072030630320967  0.3405120812392610
  0.0086423856195381  0.7373332714216119  0.0000369349233225
  0.9199344068906825  0.7860747815435971  0.6641858137061121
  0.8638182538092565  0.8456400862639128  0.3314136023221081
  0.3619830620627766  0.6179041181434073  0.0070200096467303
  0.2758754182013305  0.6670187875049223  0.6559241491281327
  0.2032373127595619  0.7062567178668573  0.3401033164946199
  0.1533157886078342  0.7467682267849369  0.0027749340017138
  0.0710130403883440  0.8070977660309850  0.6737455881276304
  0.0165212126339611  0.8152620770155750  0.3325445739288497
  0.9303165923379026  0.8692840135040640  0.0009146893020358
  0.4276507421498792  0.6693558657800551  0.6715458960478529
  0.3473475586319807  0.7141953132257299  0.3350011063595204
  0.2948856133237427  0.7490041250506678  0.0053201035301029
  0.2302580719837550  0.7903374304746151  0.6755139214394319
  0.1414957261712857  0.8323583578731686  0.3523500863468598
  0.0772561855448188  0.8776416626090011  0.0079458172375055
  0.9963693416066945  0.9173879977515753  0.6582774494730899
  0.9358089546949131  0.9620314688927678  0.3302118043263889
  0.8606507439155848  0.0156888866721445  0.0085816147939539
  0.7943911056508171  0.0371831681702517  0.6604329987123307
  0.7081329104586160  0.0814346624146225  0.3316348091971264
  0.6516277352133315  0.1095876110689247  0.9876519472185947
  0.5655091553772991  0.1686450101356058  0.6546891930767487
  0.4847598295139619  0.2008784112534698  0.3354863765756662
  0.0761502772085976  0.9588161217045084  0.3366741226426839
  0.1370221777654592  0.9866998590742924  0.9904326821789553
  0.2068212193602577  0.0475492205543517  0.6583374874570964
  0.2851249489689636  0.0902834834900759  0.3223662269652010
  0.3602752984145567  0.1124771736942733  0.9952503236392261
  0.4351971362784326  0.1771746837426491  0.6540653893360542
  0.8551558893473512  0.9051193308962056  0.6647382234510317
  0.7894072530778118  0.9487716942613034  0.3274159674939625
  0.7116650957208535  0.0060455541047091  0.9849549368440549
  0.6351225165766508  0.0467585172642018  0.6560078771592117
  0.5679508117983616  0.0858274677064657  0.3305386790868354
  0.5033469433712838  0.1304734114402351  0.0107319789150040
  0.1509368376688869  0.9285348692603890  0.6635346339194612
  0.2118181112386495  0.9529047994356006  0.3225427531082730
  0.2861027534520417  0.9846437903605008  0.9999892150402871
  0.3551554768465692  0.0427640542206902  0.6618642261297225
  0.4248523983748314  0.0751950269111745  0.3281385266340209
  0.8001657205440864  0.8841362162909832  0.0146971189002727
  0.6944610776984703  0.9131287639167454  0.6724676912012342
  0.6397408222495926  0.9551515790514742  0.3236815923997511
  0.5764163763331993  0.9971985511028976  0.0153071601142116
  0.4935784322696719  0.0401600540553204  0.6783514717725438
  0.2195215783493936  0.8541641242848357  0.0026598428960867
  0.2930585420758050  0.9228572206231078  0.6713345159192627
  0.3410296681397327  0.9572615615657583  0.3325363393237808
  0.4441892258011038  0.0023562719870611  0.0031887624190929
  0.7232247409497390  0.8076847406162457  0.3412796225716264
  0.6646523913974036  0.8708920327918506  0.0013197116316306
  0.5424940512640148  0.9051265057286031  0.6555840083892122
  0.4900152844568524  0.9510414441657318  0.3342688996266219
  0.2750263082156366  0.8246792207582843  0.3350567710150187
  0.3729295537136750  0.8739876779440792  0.9905584010542512
  0.4160330487175230  0.9215842191881620  0.6570480730223096
  0.6199662811758770  0.7936102920944137  0.6627681541582149
  0.5764250939521176  0.8224187257561084  0.3239087905840989
  0.5218052583474844  0.8734542473699207  0.9853282662153404
  0.3736030003182904  0.7991509502925638  0.6617865893205490
  0.4184550667682174  0.8321293516685415  0.3374297730864768
  0.5867745576764563  0.7471905344166743  0.0095128060360992
  0.4853412675047579  0.7899651105694261  0.6593065963833382
  0.4414217941360832  0.7401683864624573  0.0093830342415870
  0.5048506475159726  0.7088928032454831  0.3333094494903150
  0.0003923182155816  0.0078591284980831  0.7712639173481790
  0.9287684300129797  0.0344914813348893  0.4480004289350248
  0.8745348852252377  0.0830390173353379  0.1085749172060630
  0.7688367900312443  0.1238761493437650  0.7794341739770800
  0.7038553027544054  0.1811954124531923  0.4420242068362583
  0.6388096855813146  0.1981999149069580  0.1045306822047962
  0.5596458364156192  0.2592478308047532  0.7669336907791902
  0.4804909373122399  0.2929410233531655  0.4258151298648158
  0.4271797499835586  0.3291264922565844  0.1030247856401516
  0.3410771384756188  0.3681980724700864  0.7664609260000930
  0.2729295878212668  0.4170778924863754  0.4483948377066582
  0.2042804937480014  0.4380491146819665  0.0988351141027479
  0.0573051532600886  0.0475961744089233  0.4324697432849689
  0.0024510672867990  0.0759602314679668  0.1081263665844077
  0.9311822364996729  0.1203114680523569  0.7791556237430157
  0.8442479672159280  0.1591275269404164  0.4424656335189496
  0.7725981320935915  0.2194359133986197  0.1140423349396897
  0.7208234939661793  0.2480104194937525  0.7685378573920261
  0.6259016825322163  0.3040465868278517  0.4504178933950058
  0.5723945976089908  0.3411978267366749  0.1227860703780763
  0.4875220494284491  0.3786962720890656  0.7836068982743569
  0.4217373313774289  0.4170157761344626  0.4334200148146223
  0.3466470529804511  0.4551507854669552  0.1101284875733697
  0.3022370978349045  0.4973170720715103  0.7691290271874180
  0.1535926177489273  0.0782248554507632  0.0992715184558364
  0.0779327134655858  0.1251835303122348  0.7852636972821188
  0.9940053994323819  0.1483413396693578  0.4620741958544912
  0.9229936009253663  0.2043798295828907  0.1078088577666989
  0.8664311333948334  0.2553087238131724  0.7787034978014944
  0.7755291982119346  0.3017188511902589  0.4582669470248035
  0.7210037605970285  0.3247543433199596  0.1068633975443873
  0.6460040942595029  0.3725268801237149  0.7839956822263261
  0.5625638098881964  0.4145259785039812  0.4363169334590822
  0.4883633434910450  0.4620073432167331  0.1189648566125356
  0.4428225269454558  0.4902756610177121  0.7711437776428411
  0.3617080956187166  0.5523151954928238  0.4397094662859615
  0.2125559690096424  0.1144038469648692  0.7803961292489774
  0.1396872915570881  0.1679093493300101  0.4423409960250311
  0.0755637841830463  0.2045228256400904  0.0912927175790159
  0.0103389746439220  0.2736727019049425  0.7920595595233451
  0.9171493515610649  0.2839943336372954  0.4591475906857383
  0.8644955350913150  0.3356582872320431  0.1066309565337207
  0.7800075917199081  0.3751123364871418  0.7861481302997788
  0.7080266229893581  0.4075569349510246  0.4500318066519355
  0.6362262575508097  0.4550630884379316  0.1180631210621712
  0.5548795123365764  0.4790504511043281  0.7737406450390409
  0.4938759339616112  0.5383841735515702  0.4468055606516685
  0.4342578717395753  0.5989263311042450  0.1192202236835840
  0.2845636866831214  0.1801678162597966  0.4398414292666359
  0.2239227340362575  0.2071265461626481  0.0922759701640388
  0.1478724186616063  0.2381416024420417  0.7735744766432830
  0.0652097916649410  0.2858551013845343  0.4462011029142587
  0.9856779947951537  0.3224343902958040  0.1177928911340516
  0.9242903451625750  0.3991775678282963  0.7668079137651134
  0.8500766563056885  0.4192069726085563  0.4414663324763239
  0.7784337943456876  0.4435340681442881  0.1169552740489976
  0.7021826308913859  0.5092141872816072  0.7832749098848879
  0.6305752272013763  0.5519728796635945  0.4555267369499987
  0.5681465976432349  0.5779517924077169  0.1222085352041091
  0.5032274830803374  0.6108130970104213  0.7857481324530653
  0.3624766930932992  0.1931214759808739  0.1104301201965541
  0.2856171650219395  0.2399212377950519  0.7709313587679745
  0.2092555130045213  0.2793470720702373  0.4405077096333798
  0.1482625768743944  0.3435612391707750  0.1090311847822818
  0.0666144194609828  0.3891160587217186  0.7875021145290972
  0.0072284135071712  0.4180511537644378  0.4524085985107860
  0.9225146158561088  0.4510777126049277  0.1135872775114848
  0.8400010665262982  0.5202445907679945  0.7869212365903948
  0.7834563647473445  0.5380243407734255  0.4465995452255171
  0.7095070870122484  0.5738198503189338  0.1176023927339429
  0.6413613006586729  0.6263262175477422  0.7690070765666235
  0.5641971387101705  0.6727770359819303  0.4416520742626062
  0.4077554170347426  0.2466442336141697  0.7723858421295162
  0.3507606696943526  0.2941580026315478  0.4397534291115974
  0.2928898153272144  0.3222376366643758  0.1168831320008792
  0.2027609241841333  0.3666015171974308  0.7726078982614339
  0.1390522356279789  0.4095716768480742  0.4667615982566957
  0.0550272908090008  0.4447263994109321  0.1182823516492064
  0.0049578706321753  0.5109945587927385  0.7753329853619491
  0.9380859423048449  0.5510434105010518  0.4547515212981708
  0.8661081919756910  0.5735626286038737  0.1055531496147779
  0.7761807238454068  0.6447678028181230  0.7939151496750654
  0.7151118913360648  0.6667648375672499  0.4474971800536593
  0.6613249133831047  0.7169424080809037  0.1177044400804448
  0.1599020305738748  0.4957300932542239  0.7825944884433014
  0.0713713475110680  0.5529972758831931  0.4440336412535615
  0.0153924010013924  0.5771182829092680  0.1124458534127442
  0.9204480142030462  0.6322930394266706  0.7783951400283371
  0.8615430016757131  0.6671723759750137  0.4569504205372041
  0.7956655979848435  0.6994050059182371  0.1262562171892725
  0.7028599163219056  0.7660095070620372  0.7889300129627941
  0.2175392411948707  0.5390851055112549  0.4327003772561042
  0.1489368609133308  0.5707492467999273  0.1234040262184379
  0.0725390005361604  0.6355323254797867  0.7984709452504930
  0.9902485067537228  0.6826508183417275  0.4606201875083471
  0.9393266392592139  0.7065884395933892  0.1136785937304836
  0.8484479844967012  0.7675007243220264  0.7807056028561234
  0.7881844311149422  0.7819353988926139  0.4488168331158491
  0.2963069258016660  0.5848318071773093  0.1156566426790349
  0.2088740353549099  0.6185524530575748  0.7748503176100243
  0.1261166671480609  0.6506799139309223  0.4351898463844108
  0.0795177232878856  0.7156041292868238  0.1139170372475817
  0.9982952928818776  0.7552367921311856  0.7863033393194740
  0.9313637428498396  0.7920625361900377  0.4494209639841031
  0.8628732426926078  0.8268404665817570  0.1194349805988750
  0.3605623693349784  0.6244583389140388  0.7700863438456835
  0.2752966949855633  0.6632547416389869  0.4418812030852308
  0.2262277604049814  0.7229319501875580  0.0995252800351381
  0.1600073081789191  0.7600572045225604  0.7767951404589937
  0.0816447580203743  0.8006508732794586  0.4565569307890058
  0.0007774328366494  0.8184566677501053  0.1060594221435522
  0.9266525619904229  0.8873753257333021  0.7759620254690915
  0.4261543213805794  0.6656143408490252  0.4348800708862512
  0.3837278983151080  0.7147973493027635  0.1027557348526926
  0.3123891959370368  0.7217984568089619  0.7748111798727848
  0.2189323547799091  0.7841596486450797  0.4433116329246403
  0.1532818620126193  0.8303527123265653  0.1080544678578690
  0.0617232631038789  0.8892533003890861  0.7734660956146158
  0.9987648476836384  0.9153204548279206  0.4475376696252837
  0.9377691825380481  0.9592590731257715  0.1069099085713816
  0.8548290238603116  0.0097857887568793  0.7851682790489320
  0.7811946694548979  0.0462678852369294  0.4405073039538649
  0.7237103241569542  0.0813943386751532  0.0961043302627473
  0.6356167612046946  0.1148726882278197  0.7630049206943923
  0.5746565088472551  0.1680123527963175  0.4378007174756604
  0.5197296856203977  0.2155665890120559  0.1166803370326832
  0.0777760570694710  0.9599951004571778  0.1198127866565031
  0.1311475853203916  0.0136238313584087  0.7810367798865627
  0.2080171169651734  0.0484144633630095  0.4387103207107543
  0.2902672678771125  0.0809298461732624  0.0981323673682084
  0.3752694704975070  0.1223391936606149  0.7686442509356013
  0.4328769222588988  0.1666754204709591  0.4448075063629702
  0.8587134368439493  0.9261851451818472  0.4506176539493438
  0.8057967701564266  0.9629520658637105  0.1042002054237017
  0.7042778413563298  0.9980037984698100  0.7818874080007561
  0.6248966299187870  0.0460362657481355  0.4436463335960354
  0.5887766617894670  0.0886203344321430  0.1214107647188030
  0.4992222516149099  0.1391312462951788  0.7719940091213289
  0.1481215939047971  0.9177043087600580  0.4460600431518955
  0.2111693693270027  0.9390045918673451  0.0912276150609586
  0.2934749659164737  0.0096049327633096  0.7656830368255356
  0.3643208942107492  0.0387844147985845  0.4368775506776430
  0.4493940266766572  0.0947187613996618  0.1130666154184041
  0.7930286903690416  0.8781018505131826  0.7840522331752808
  0.7180172498028341  0.9184436316584694  0.4445275000753668
  0.6630214473378544  0.9578304756079632  0.1217679065300601
  0.5726978588349709  0.9933932873707860  0.7637347760364861
  0.5031965455790086  0.0332999195077974  0.4388649819339108
  0.2145915806489000  0.8731147513565958  0.7836195234342327
  0.2772523062500909  0.9226964855315956  0.4349140790601354
  0.3641382443759866  0.9677471517704888  0.1045145161776517
  0.4396064076364681  0.9994628304495876  0.7660206836259675
  0.7201823376538172  0.8316748375624030  0.1073086484670753
  0.6396398927599733  0.8733757675896356  0.7892184338703601
  0.5641247661601625  0.9167796466399381  0.4495205957718014
  0.5004737320308408  0.9575347092541975  0.1258961710227666
  0.3023321953847358  0.8310483144663223  0.1080305728177464
  0.3673895091151280  0.8709735543918669  0.7728940005081739
  0.4201843131558292  0.9109839119104777  0.4531565307080427
  0.6486700092047357  0.7899750389500255  0.4362068956904110
  0.5890543793677523  0.8484139682646514  0.1094903515458441
  0.5001289345520377  0.8703452750333653  0.7676534915569562
  0.3596743444902089  0.8120310827477653  0.4465391739124840
  0.4345949568240783  0.8424034234598636  0.1054653230147764
  0.5689116857780974  0.7620334394964061  0.7921841220828298
  0.4983904814397278  0.7948249930914031  0.4296652342992999
  0.4488260151217531  0.7333726645091048  0.7681189183602299
  0.5071037013196928  0.7062354794511378  0.1177427823929946
  0.9929796410386516  0.0141259316152897  0.2215189497982379
  0.9246837798778813  0.0444012018575748  0.9097388737440966
  0.8547177624461852  0.0956857117879011  0.5501064137844907
  0.7814943862936090  0.1217115400223818  0.2232379000271294
  0.7130344480474236  0.1711293057731567  0.8847444524833890
  0.6495405403384353  0.2230515667698114  0.5527212921452360
  0.5577182161412608  0.2461797221185762  0.2211358694762779
  0.4942265412530773  0.3011585309398370  0.8885519605689822
  0.4275701626268429  0.3265148220544560  0.5336483408913750
  0.3634734106752546  0.3610185025693227  0.2215445670383218
  0.2851569032329806  0.4115010254849309  0.8725072096398421
  0.2079469222791843  0.4735611636254689  0.5582140635564556
  0.0656277678192581  0.0533073567040958  0.8885473335831122
  0.9839481178159417  0.0780868871811506  0.5596187646154434
  0.9239226140124117  0.1203990799400927  0.2147223205557225
  0.8662270725533219  0.1835411957245157  0.8803351214239257
  0.7903314803322132  0.2345367330261681  0.5714661063810524
  0.7115839520536937  0.2538646582439625  0.2130277352144461
  0.6452869477687315  0.2955804808189555  0.8799551754283996
  0.5735458228846753  0.3320786389562116  0.5422226775709191
  0.4999930454691750  0.3587668104438322  0.2277310547236695
  0.4267354481304224  0.4215240571769385  0.8872052488555298
  0.3546063606583587  0.4604844205794052  0.5545703914247468
  0.2720874807934592  0.4941654050955719  0.2306099408707070
  0.1486493383080472  0.0752954763067706  0.5405239109744500
  0.0646021022125964  0.1222661741683737  0.2159262490148706
  0.9900211988849534  0.1717029487778632  0.8812860673634688
  0.9300252758494878  0.2189194652546647  0.5633693401894035
  0.8571547162190782  0.2554163243391088  0.2313237257916541
  0.7835683777903810  0.2945229107986052  0.8764960530225707
  0.7035719938172349  0.3547220705953364  0.5552426618088475
  0.6411748122064012  0.3614275923659562  0.2215077595896702
  0.5739482137015841  0.4273742469665933  0.8932852542818139
  0.5095376601921160  0.4552645544030156  0.5500813068737287
  0.4219172070763548  0.4918359624060074  0.2323371791062101
  0.3545061741323892  0.5426117009395668  0.8821264062049181
  0.1980371133981507  0.1207838818348606  0.2143247740123968
  0.1574727588198286  0.1536305155827833  0.8878445614397776
  0.0794930243784009  0.1991414755048027  0.5657731252395521
  0.9792888955864996  0.2537388245614949  0.2277883011847379
  0.9209138387887563  0.3099129083239234  0.8849330628803216
  0.8483704996246999  0.3512520786026130  0.5598476298755841
  0.7817834392120062  0.3685603506228645  0.2230528304974513
  0.7167193467307698  0.4200862473028266  0.8887546517486840
  0.6318659158433135  0.4560482433477304  0.5413511681588972
  0.5600317690425030  0.4759527144201385  0.2191985310267341
  0.4835113730833527  0.5259690769414789  0.8905675409017135
  0.4260123732991232  0.5827310165878359  0.5545581887400246
  0.2975606289370134  0.1683130013989143  0.8679340839696295
  0.2237486972568306  0.2048887257857714  0.5683107716093261
  0.1335593620700095  0.2423816538755474  0.2249166698966008
  0.0796831524527661  0.2961111054704588  0.8820245543769900
  0.0033623889967203  0.3265071517750187  0.5710045628178761
  0.9293149829871155  0.3895361041447885  0.2294058427324330
  0.8612952335886987  0.4123372086323585  0.8892690675831076
  0.7749759688504412  0.4553534991096768  0.5544687553563037
  0.6939567151453900  0.4924564128592763  0.2509898558588830
  0.6417185981166895  0.5416160720475602  0.8819270956878213
  0.5719672656450285  0.5859595311847556  0.5506400851840851
  0.5119543901906241  0.6109759394812215  0.2188817491591379
  0.3573349037888391  0.1997451267123580  0.5477200639095940
  0.2719949310466419  0.2512688393899367  0.2132436915113090
  0.2193650905209878  0.2904737381695881  0.8972950784442943
  0.1583818608794800  0.3307349722945929  0.5702336791514284
  0.0644446959238465  0.3691491645456111  0.2335173994306672
  0.0148218218027552  0.4301370680660170  0.8963733375537757
  0.9297958685729384  0.4677987156395105  0.5551859967356165
  0.8323286206129836  0.5025441567710871  0.2296865639117485
  0.7810808273713263  0.5483194586675495  0.8987336059396327
  0.7159458747696874  0.5745484461659487  0.5580859614216891
  0.6321759192818135  0.6207276760435860  0.2265664069800977
  0.5605443981452751  0.6627818315104363  0.8986846431785978
  0.4130714525667756  0.2519344328815407  0.2185674922373977
  0.3516648874391493  0.3033055464430987  0.8871997149046322
  0.2886526879532951  0.3394558508600909  0.5364944759542283
  0.2151607067417558  0.3828220679796459  0.2242655857159477
  0.1560481561669249  0.4259950344809269  0.9009919790011338
  0.0700476244121546  0.4697840529310326  0.5537789477310824
  0.9909919864408181  0.5112899125238926  0.2236880445127767
  0.9249320857704006  0.5414051971023923  0.8783987902826382
  0.8561421080343123  0.5858460070364515  0.5643292455308497
  0.7876729855636029  0.6263124738493175  0.2285276090317510
  0.7116228828025442  0.6741316211686197  0.8888535208416783
  0.6467088388517865  0.7034626079860686  0.5625134093874777
  0.1409906946339561  0.4895030011247812  0.2225497607696738
  0.0755443897707977  0.5391842313640680  0.8935059861414345
  0.0044930504316980  0.5970265600956495  0.5681208718233606
  0.9032135570373825  0.6294709587603364  0.2112255974298378
  0.8623195526614680  0.6740884017959914  0.8854388931236912
  0.7857340702983038  0.6965452696777987  0.5575924027682646
  0.7063658082864563  0.7469513710398203  0.2247110915879631
  0.2045914038132537  0.5390727966040458  0.8941602558967787
  0.1427971431273036  0.6019278864929305  0.5604442496436306
  0.0676129439048339  0.6201957249503849  0.2288620719801173
  0.0145261190058008  0.6644269270464065  0.8977884799076676
  0.9245850669866087  0.7149836582849076  0.5605025899751510
  0.8519728475432871  0.7466480037628926  0.2339889971275113
  0.7827492411319952  0.7962530342099896  0.8931873261758057
  0.2830172764758956  0.5912370635007136  0.5563556069473705
  0.2196183649171104  0.6250217633727431  0.2161992739111867
  0.1559588146510649  0.6727550487239213  0.8885503021063457
  0.0780738648347636  0.7221411174645453  0.5550765700701561
  0.9841924815080176  0.7552206625309452  0.2096166388892442
  0.9178626259011011  0.7906446776381486  0.8979478671679502
  0.8497079888841483  0.8193825589414985  0.5553680637201097
  0.3696658668107773  0.6234771407737227  0.2204406971486179
  0.2994776676875119  0.6540027060862030  0.8933210970573171
  0.2094519619440121  0.7263093532795395  0.5544295271809574
  0.1314843701105275  0.7533008573444349  0.2228782517883090
  0.0722343684458195  0.7995338936477765  0.8876004827672332
  0.9888785632132056  0.8436116651411609  0.5518852805519288
  0.9310159790236341  0.8699742130991055  0.2317540544265171
  0.4349384797375180  0.6534000993972100  0.9034404297102085
  0.3585996635643198  0.7159977796817998  0.5494119938157525
  0.2785369172096281  0.7409976188603835  0.2096024844640283
  0.2417671898856852  0.7781169415446456  0.8904749146221178
  0.1385927394752855  0.8551901076685695  0.5582276486522559
  0.0617892151905437  0.8726687821548182  0.2208718207775107
  0.0047115316593960  0.9204008225766032  0.8717311287967817
  0.9192666344440923  0.9410443249764597  0.5509117255160376
  0.8577709533407898  0.9924506698805757  0.2142957412264295
  0.7789957056578771  0.0542480678178379  0.9024248020051431
  0.7199895942692152  0.0942286679276449  0.5646017928278297
  0.6549034410953780  0.1218529786993017  0.2184140540819897
  0.5732887735121324  0.1620112620543992  0.8874963928114639
  0.4998206178841684  0.2016603015614891  0.5447325900182136
  0.0756136055906182  0.9468027811161832  0.5552645529988851
  0.1320590746805905  0.0078261092043519  0.2104055968269165
  0.2098575722350375  0.0270488128719819  0.8863080511449013
  0.2948215117322022  0.0952576359967594  0.5550351158253761
  0.3535785662291531  0.1335653100549763  0.2154913799563332
  0.4323487416594887  0.1824776701299555  0.8814764714495524
  0.8556934986279288  0.9260324002005760  0.8967131854454919
  0.7822448909064335  0.9559248976230492  0.5617379706549883
  0.7161470030969497  0.9971544700910826  0.2161614565703260
  0.6535796679649408  0.0442626464168967  0.8728337058522087
  0.5812302741502791  0.0927592118660954  0.5577636636908210
  0.5010373465911968  0.1232908624219817  0.2092970280315072
  0.1494311564565791  0.9016895921338062  0.8874346287515635
  0.2349585009443018  0.9634605060038126  0.5468534407393548
  0.2787181845725328  0.0022797430628998  0.2086961128839846
  0.3651134899858519  0.0468471577357192  0.8912536168783376
  0.4453441637129814  0.0677996941490520  0.5523545389163758
  0.7712441823652654  0.8627557757055229  0.2173054198266158
  0.7318998349902373  0.9151624393644937  0.8779391566861747
  0.6438751087771308  0.9739885761616591  0.5444322002730360
  0.5627018338291521  0.0007488112345158  0.2125281520910605
  0.4997989917302803  0.0465350348780831  0.8801265603803543
  0.2044614324215033  0.8690725883321164  0.2190936133469421
  0.2993975414598893  0.9125761339606058  0.8816577145859412
  0.3468717862489612  0.9548363193670326  0.5525692036709273