Li 
 1.0000000000000000
   -11.0705700000000018   19.1747897087477881    0.0000000000000013
   -18.9781199999999970  -10.9570226907130195    0.0000000000000076
     0.0000000000000001    0.0000000000000001   23.2203000000000017
 Li 
 504
Cartesian
  0.3095742200000000  0.1004313600000000  0.1931106100000000
 -10.8063474100000008 17.0635342100000003 15.5639969600000008
 -11.1726828099999995 15.3049162299999999  7.6743487200000002
 -11.0562126700000007 13.9317608100000001 -0.0845890200000000
 -11.0323720400000003 11.9613810300000001 15.4200227400000003
 -11.2681831500000005  9.9815333699999993  7.4619682699999998
 -11.0045880000000000  8.2353624700000001 -0.2326851200000000
 -11.0854696799999992  6.4206430900000004 14.8797751700000003
 -11.1978499100000004  4.3079730999999999  7.6783394100000004
 -11.0862442199999993  2.8242840800000000 -0.0041874000000000
 -10.8799044600000006  0.8867585000000000 15.5589008999999994
 -10.7225980700000001 -1.1670890400000000  7.8592854799999996
 -1.4971538200000001  0.4099831900000000 15.5390193100000005
 -1.8521093600000000 -1.1017656000000000  7.7029683400000000
 -13.0240636500000004 16.5324513999999994  0.0401070200000000
 -12.7671308999999997 14.7285523099999995 15.7056761999999992
 -12.5166745600000002 12.6382441900000000  7.5433450899999999
 -12.2690907700000000 10.9985962399999995 -0.0579493200000000
 -12.7536171599999992  9.4534765299999997 15.2165637100000009
 -12.5134451799999997  7.2488222599999999  7.9349031600000002
 -12.6007095000000007  5.4796761700000003  0.3275102600000000
 -12.4040681900000003  3.6157895999999998 15.3843612000000007
 -12.5799877400000000  1.6369749099999999  7.8341161899999996
 -12.6143594900000000 -0.1279714500000000 -0.3800872900000000
 -3.1225855299999998  1.6412475000000000  7.6554425500000001
 -3.0299839700000000  0.1920258500000000 -0.3190231900000000
 -3.3401178200000001 -2.0980555700000001 15.5734078399999998
 -13.8505639499999997 15.4552381099999998  7.8936299700000001
 -14.4139531499999993 13.6583630500000002  0.0102883600000000
 -14.4101974199999994 11.9330648799999999 15.7245258099999994
 -13.9923422800000008  9.9754220399999998  7.9822764199999998
 -13.9291051400000008  8.3190561200000008 -0.3819726300000000
 -14.3081637500000003  6.5689001400000002 15.5785035900000004
 -13.9392486200000008  4.7426808899999999  7.5728540300000002
 -14.3815054199999999  2.5361269599999998 -0.0288764100000000
 -14.5022041799999997  1.0792252099999999 15.2604232700000004
 -4.7365415000000004  3.1383450499999999 -0.2181571800000000
 -4.5128025599999999  1.1218517800000001 15.5974600199999998
 -4.6824522100000001 -0.9596485300000001  7.6321626800000004
 -4.7684629100000002 -2.5865866400000002 -0.5690964500000000
 -16.0693067899999988 14.6028812099999996 15.6090859300000009
 -15.6435505199999998 12.4785993600000005  8.0623196799999999
 -15.5592435499999997 10.9113049300000000 -0.2150334000000000
 -16.2564193500000016  8.9505709299999996 15.6168703900000008
 -15.5552654100000005  7.3781187099999999  7.9854946599999996
 -15.8202174200000005  5.3532144900000000 -0.1102933200000000
 -15.5293676400000003  3.8290414799999999 15.4324775499999998
 -16.0395836600000017  1.7392368199999999  7.4287016200000000
 -6.4332480399999996  3.6328605000000000 15.9948236500000007
 -6.1605564099999999  1.5265125900000001  7.6529367900000000
 -6.3222503999999997  0.0755971800000000  0.1464698500000000
 -6.4500551499999998 -1.8566203999999999 15.8663938200000008
 -17.0468420000000016 15.3000429400000009  8.2560897299999993
 -17.2275067300000018 14.1021824299999992 -0.0141912800000000
 -17.5362178299999982 11.5922910199999993 15.3833409299999992
 -17.1830019299999996  9.9895896999999998  7.7684702999999997
 -17.2786144300000011  8.4041678199999996  0.1942291900000000
 -17.5584383099999997  6.3815837200000001 15.1606935200000006
 -17.1736211800000014  4.4747488500000001  7.7590902000000002
 -17.3112536100000014  3.1848523399999999  0.0539005300000000
 -7.8680937599999998  4.4008182199999997  7.8995419399999998
 -7.8556454699999998  3.0143006899999998 -0.3128179600000000
 -7.9235055399999998  1.0951104000000000 15.5437834000000006
 -8.1235347400000002 -1.0707488999999999  7.9409839399999997
 -7.8379218899999996 -2.4195320599999999  0.1106819800000000
 -19.1859046599999985 14.5599620600000002 15.6294779399999992
 -18.7935775000000014 12.6320474600000008  8.0762831599999991
 -18.5520187000000014 11.0409137000000008  0.0205595100000000
 -19.1121118400000007  9.0305842500000004 15.6339207099999999
 -18.9706332099999990  7.3660191399999997  8.1503082899999999
 -18.7966483699999998  5.8492804700000001 -0.0155236100000000
 -18.7136480499999998  3.2672042499999998 15.5592043600000007
 -9.4172461900000002  5.3963154900000001 -0.0848575700000000
 -9.4532067099999999  3.4614940100000000 15.1413231199999991
 -9.6335101200000004  1.3439566000000001  7.7720469400000001
 -9.5750337600000002  0.6177317000000000  0.2194479100000000
 -9.3829000100000002 -1.8327583700000001 15.6425637099999992
 -9.1088083100000006 -3.6895015700000000  8.2890287399999991
 -20.7205501699999992 13.7692532799999992  0.2324445200000000
 -20.6779499700000002 11.9757232899999995 15.8980219900000002
 -20.5711491899999999 10.0369340299999994  7.9807110200000002
 -20.7828132600000011  8.2687722699999995  0.1035873000000000
 -20.4566492999999987  6.1633683799999996 15.5398255699999996
 -20.3222975900000016  4.9473220099999997  7.5663004100000002
 -10.9120159900000004 -2.7405040199999999  0.2514095700000000
 -11.5545106999999998 -4.3435445000000001 15.8033682500000001
 -22.0521301200000011 12.6379161799999995  7.9620071100000001
 -22.1446185200000016 11.1983980299999999 -0.1925275000000000
 -22.2033917699999996  9.0037518300000006 15.7125430599999998
 -22.1820881300000003  7.6233577500000003  7.8920457400000004
 -22.2621024500000004  5.9117815800000004  0.0804354200000000
 -12.8114137499999998 -1.4796342099999999 15.4119028399999998
 -12.3846067499999997 -3.6241990099999999  7.3015907000000002
 -12.7428192100000004 -5.3674640399999998  0.1744946500000000
 -23.8495867100000005 11.8381715100000005 15.8075855900000004
 -23.6885087399999996 10.0648529399999997  7.7739125099999997
 -23.8700714000000005  8.2259253599999997  0.2441440500000000
 -23.7500854799999992  5.8944661700000003 15.5720571900000007
 -14.5418623999999994 -0.8490661800000000  7.8462444500000004
 -14.2732376199999997 -2.8419427100000001  0.3059975300000000
 -14.5016837100000000 -4.4695512900000001 15.5543221799999998
 -14.2266405099999993 -6.3540958500000002  7.9067926799999997
 -25.1594454399999989 11.2615282499999996  0.0008576400000000
 -25.1024197800000017  9.0265095800000008 15.4225938500000002
 -25.6116194800000017  7.2978357500000000  7.6955232699999998
 -15.7340173300000004  0.1705596500000000  0.1630067300000000
 -15.7128607200000001 -2.0186868599999999 15.2307555200000007
 -15.6533776400000004 -3.8414381500000001  7.8973010400000003
 -15.8695501900000000 -5.2425584000000001  0.0644348000000000
 -16.1033530899999988 -7.4817284199999996 15.6445746799999998
 -26.7256107699999994 10.5587354100000006  7.7217847700000002
 -26.7965112800000007  8.3138603599999996  0.0212393600000000
 -17.4374534200000006  0.8659656400000000 15.5934971699999991
 -17.3994198199999985 -1.1651378600000000  7.7788261900000002
 -17.4792419899999985 -2.5524855700000000  0.1235344000000000
 -17.5482067000000015 -4.2445950500000000 15.6856359100000002
 -17.3630351400000009 -6.4070186199999997  8.1816747099999994
 -17.5112588000000002 -8.1349684999999994  0.1845042600000000
 -28.4406760500000004  9.0533314899999997 15.2853998600000001
 -28.6174871999999993  7.4029392800000000  7.6676171599999998
 -9.8256398800000007 16.3308935400000017  0.1992676700000000
 -9.5000289700000007 14.8248655800000009 15.3354523599999997
 -9.3849117500000006 12.6860181999999995  7.7006597599999997
 -9.2936572900000005 11.2940708500000007 -0.2867254900000000
 -9.4610739299999995  8.9956719300000003 15.2020794699999993
 -9.1788622199999992  7.0941384799999998  7.7900943099999997
 -19.0395543899999993 -9.0456044500000008  7.8176741300000003
 -1.2645019399999999  2.7731013899999999 -0.2221559900000000
 -3.1920236000000002  3.4447554999999999 15.2867939600000007
 -4.8699064900000000  4.4779727600000001  7.4854405000000002
 -6.1230582099999999  5.6757881399999999 -0.1102889100000000
 -8.1803227700000001  6.4035065400000004 15.1875945600000009
 -26.6445264100000010  6.4800212999999998 15.4354209699999991
 -26.7450913200000002  4.7410050899999998  7.6026969900000001
 -7.9932715099999996 13.5797872799999997 -0.3493508800000000
 -7.9185570299999997 11.6660065599999996 15.2326997100000003
 -7.9163832000000003  9.9499238699999992  7.6752072900000003
 -8.0484776300000007  8.2219716599999995  0.2491997700000000
 -19.2928029999999993 -7.2797955099999996 15.4074732599999997
 -20.4292888599999998 -6.3794317700000001  7.4895394900000003
 -2.8758885699999999  5.6542184700000000 -0.0002504300000000
 -4.7433549199999998  6.3414648700000003 15.3686858900000001
 -6.1304184599999996  7.3225417799999999  7.6194750300000003
 -25.6375338299999989  5.6555088400000004  0.3412715100000000
 -25.0175472300000017  3.3109725399999999 15.6149015299999991
 -25.2092768400000011  1.8012782100000000  7.5159836799999997
 -6.3280916100000004 11.0833583400000002  0.3554368500000000
 -6.2263569099999998  9.0242280200000007 15.7515246799999993
 -18.6406582500000013 -5.1498155900000002  0.0617623500000000
 -20.7584201800000017 -4.4924315899999998 15.5885888599999998
 -21.9424175999999989 -3.9495644799999998  7.7215935599999996
 -4.9621455299999999  8.4914172699999995  0.0740440200000000
 -23.3348480500000015  5.0178622900000001  7.9246152199999997
 -23.8859743299999998  3.2021860700000002  0.0306441000000000
 -23.1833178099999984  0.4847176900000000 15.2228573500000000
 -23.4737271599999993 -1.0246426500000001  7.7618241299999999
 -18.6955592099999990 -3.7624573099999998  7.7801187399999998
 -20.7151857600000007 -2.4254570499999999 -0.2192367600000000
 -22.0956588899999993 -2.1204729800000002 15.2568533700000000
 -21.9246114699999985  3.1921170900000000 15.3896753700000009
 -21.9893156199999993  2.0415693199999998  7.5212592899999997
 -22.3532011600000011  0.4350480900000000 -0.3406820600000000
 -19.3023808000000017 -1.5925561300000000 15.3668831400000006
 -20.4247867999999997 -1.0938722800000000  7.8352205599999998
 -20.6762004399999988  3.0642951100000002  0.2208902100000000
 -20.3650571400000011  0.6506511000000000 15.3092969599999993
 -18.9337953299999988  0.3541282700000000  0.2178768700000000
 -19.0424371199999989  1.9130504699999999  7.7395454099999998
 -0.1534946700000000 -0.0785900300000000 17.9089795400000007
 -10.9365793900000003 17.4310153899999989 10.4027043599999995
 -11.2575240999999995 15.8591621200000006  2.5211421500000002
 -10.8623979300000002 13.3849699900000001 18.0986953499999998
 -11.2308276800000009 11.5109151700000005 10.2639346899999993
 -10.8334491100000001 10.0773604199999998  2.4272338000000002
 -11.1156348499999993  7.8905068600000003 17.8084303800000008
 -10.8787784500000004  6.0035512400000002  9.8875550600000004
 -10.9753253900000001  4.5848354300000000  2.3922664299999998
 -10.7636255399999996  2.5057277700000000 17.7974526399999995
 -10.9368403999999995  0.6634355199999999 10.4118626499999998
 -10.5748501699999995 -0.8826785800000000  2.2949809999999999
 -1.5376866199999999  0.5773019000000000 10.0420771799999997
 -1.4687171000000001 -0.7852992800000000  2.5107266699999999
 -12.5920036100000008 16.5369680800000012 18.0922273300000001
 -12.3662475199999999 14.4447133099999991 10.2741847499999999
 -12.7175828000000006 12.4100424300000007  2.6480972299999999
 -12.6866984499999997 11.1041831200000001 17.8456796100000012
 -12.6993209999999994  8.6700877900000002 10.4588386100000008
 -12.8120277599999994  7.2370337100000004  2.8511293900000001
 -12.5840902700000008  5.1987491300000004 18.1955872599999999
 -12.5830480900000001  3.5174733200000001 10.0641427700000001
 -12.4754866900000003  1.6597868600000001  2.5572165199999999
 -12.7840800199999993  0.3462183500000000 17.8594067500000016
 -3.1849185200000001  2.0879946299999999  2.3051144400000001
 -3.2385076200000000  0.1227046100000000 18.2340586299999998
 -2.7488760999999999 -1.7403246299999999 10.7295014500000008
 -14.0968102000000002 15.4588137700000008  2.5033540200000002
 -14.4371661099999997 13.8162113000000009 18.0817288299999994
 -14.3116068399999996 11.5646689899999995 10.6410959900000002
 -14.1451495000000005 10.2667547799999994  2.4814001499999998
 -14.2214933800000001  8.3052071800000000 18.2046149399999990
 -14.0948258000000006  6.2450722000000001 10.1314100899999993
 -14.1744913799999992  4.3020394700000004  2.7623996599999998
 -14.2068081100000008  3.1190672899999998 17.9061898600000013
 -14.4862188500000002  0.8839465399999999 10.2101857200000001
 -4.5242856700000003  2.8221904599999998 18.1210322400000017
 -4.7330217200000000  0.8386878900000000 10.2712906299999993
 -4.7179928899999997 -0.7920415700000000  2.1198442900000001
 -5.3082517200000003 -2.8003903399999999 18.3918605900000003
 -15.5430446399999997 14.4744135899999993 10.6615447999999997
 -15.9406215899999992 12.8987046200000002  2.4760027999999998
 -15.7540555799999993 10.8463671599999998 18.2545954299999984
 -15.5729227100000003  9.1106510200000006 10.4498735600000003
 -15.6796292200000007  7.2133681100000002  2.7414610900000000
 -15.2343094299999997  5.3907312999999997 17.9664898999999991
 -15.6850075499999999  3.5708795699999998 10.3749591599999995
 -16.1739779500000012  1.7643539699999999  2.7683293600000001
 -6.5695286499999996  3.4823460000000002 10.2132499400000007
 -6.4098247500000003  2.0241810700000000  2.1426757099999998
 -6.1565118700000001  0.2260995900000000 17.9626314200000010
 -6.1469019800000000 -1.8817367899999999 10.3609234699999995
 -17.0312157900000010 15.3672473400000005  2.7351862699999998
 -17.8080607499999992 13.3492753299999993 17.8055097999999994
 -17.3665933599999995 11.7067808099999997 10.2509806799999996
 -17.0351485800000013 10.0664914599999999  2.7157365499999999
 -17.4374899200000009  7.8847328799999996 18.1878783900000016
 -17.4562347399999993  6.0431680099999996 10.5774674900000001
 -17.2581451500000007  4.5614606300000000  2.8377188499999999
 -17.1630993300000014  2.9565882000000001 18.2453073600000018
 -7.6779061500000001  4.8343779700000002  2.5642205200000001
 -7.7151988600000001  2.8478266300000001 17.9012574300000011
 -7.6180600600000004  0.9516182500000000 10.2287211700000000
 -8.1614976600000002 -0.9215045600000000  2.5317368199999999
 -8.1221508500000006 -2.9862359999999999 18.2860353499999988
 -19.0844176200000000 14.7327970399999995 10.5050633799999993
 -18.7733695900000015 12.7465550299999997  2.6375306599999999
 -19.1725548799999999 10.4065120199999992 18.2725471900000009
 -18.8839990299999982  9.1274661300000002 10.3701754200000007
 -18.7446698500000011  7.3172920699999997  2.7307628400000001
 -18.9867292899999995  5.4352974900000000 17.8565750200000011
 -19.0140272400000008  3.4467282400000001 10.2552936599999995
 -9.1949287500000008  5.1161379100000000 17.9350309699999997
 -9.4656864200000008  3.5026661699999999 10.2112065500000000
 -9.3579217400000001  2.0853355200000001  2.7140613899999999
 -9.2020865900000004 -0.1289630600000000 17.9401871799999988
 -9.3122879399999992 -1.8213887799999999 10.8383443400000008
 -9.0492544499999994 -3.8177405200000001  2.7465516900000000
 -20.8231725099999991 13.6708768599999999 18.0034645200000014
 -20.8429140599999982 11.9498055200000000 10.5594667500000003
 -20.4734517599999997 10.3229037100000003  2.4509758000000001
 -20.8292437700000015  7.8183667100000003 18.4349479500000015
 -20.5706393500000004  6.4063626800000000 10.3910187700000005
 -20.9274628000000007  4.8252119100000002  2.7331324100000001
 -11.1782318200000006 -2.3656380700000001 18.1720788000000013
 -11.2849701600000003 -4.6906731199999996 10.3105943599999996
 -22.1935926799999983 13.1464376400000003  2.6110264500000002
 -22.1896173499999989 10.7213479300000003 18.0745686700000014
 -22.1994495200000017  9.2096830199999999 10.6105258500000001
 -22.0818638299999996  7.5933240000000000  2.9317072400000002
 -22.3184802500000004  5.0840075400000000 18.3191915799999983
 -12.6391052199999994 -1.7354985300000001 10.0474325699999998
 -12.4805636399999997 -3.3978794600000000  2.8654785100000000
 -12.8642568199999996 -5.5726220299999998 18.5407348899999995
 -23.9180445599999985 11.5079863699999994 10.6957389400000000
 -23.8086015099999990 10.2692852099999996  2.6396510499999999
 -23.9585236500000001  7.8592888299999997 18.1282183100000012
 -23.5653147499999989  6.5455868099999996 10.4216615099999999
 -14.3792947800000004 -0.7263923900000000  2.6855819400000001
 -14.0513173099999999 -2.7723775599999998 17.9922568299999988
 -13.7448648799999997 -4.7112540100000002 10.1052387899999996
 -14.4611275599999995 -6.3161550599999998  2.6451877800000001
 -25.3846723899999986 10.8669556400000005 18.2581994300000012
 -25.3425853699999983  9.1800567300000004 10.4356896100000007
 -25.2443762300000003  7.4857032200000004  2.7733160799999999
 -15.8426762399999994  0.0715034200000000 17.8816359300000016
 -15.6350194100000000 -1.9885410200000000 10.2606140999999997
 -16.2243595599999999 -3.5833120500000000  2.3110068600000000
 -16.1958289399999984 -5.2598575500000004 18.0374161999999991
 -16.0987023600000008 -7.2072287199999998 10.6013888999999999
 -26.6119454799999993 10.2218485399999999  2.4627316000000001
 -27.0992874700000002  8.0453764299999992 18.0180710200000007
 -17.3498800799999984  0.8782680600000000 10.0980457099999992
 -17.8135964300000005 -0.4741490200000000  2.3860189900000002
 -17.1567041899999992 -1.9187649300000000 17.9913480399999983
 -17.3055818700000010 -4.3940732000000002 10.2938291100000008
 -17.4554510000000001 -6.1590460399999998  2.5090571599999998
 -17.5596675500000003 -8.5600380000000005 17.9601147800000014
 -28.4279575899999983  9.1219189299999996 10.3919589499999994
 -28.5865731799999985  7.4709034399999998  2.4824801500000002
 -9.6491604199999994 16.2839436599999985 18.2318429900000005
 -9.5263477499999993 14.4722852399999997 10.2287117500000004
 -9.5565973300000007 12.9851536599999999  2.2315713800000001
 -9.2167075100000009 10.9291550799999992 17.7172031600000004
 -9.5503336999999995  9.1780025500000004 10.1658639999999991
 -9.8447524600000005  7.6037394200000001  2.7093524300000000
 -19.0799275000000002 -9.0273485600000001  2.7820888500000001
 -1.7104332300000000  2.3654507400000000 18.1359083400000003
 -3.2216835499999998  3.4582060999999999 10.1869852600000002
 -4.7493204400000000  4.6790636599999997  2.2786630099999998
 -6.4762148399999999  5.8552398600000002 17.8481501000000016
 -7.9553804000000001  6.4740575900000001 10.3285637399999999
 -27.0837000400000001  6.3174179199999996 10.4634771099999995
 -27.1956494100000015  4.8998959800000002  2.4195600300000000
 -7.7588729900000004 13.5262519300000008 18.1556601800000017
 -7.7916436600000001 11.4778410599999994 10.3016009600000000
 -8.1999405900000006 10.3186536600000007  2.8191943799999999
 -8.1671243699999998  8.0480174699999996 17.9259324900000010
 -19.0560929700000017 -7.2151065200000000 10.3576480199999992
 -20.1583071099999991 -6.2395663700000004  2.1183325900000001
 -3.4312187199999999  5.5220792899999998 17.7793898199999987
 -4.7692952399999999  6.5608148200000000 10.1444277899999999
 -6.7726320500000003  7.5792003399999999  2.6254407299999998
 -25.4440019200000016  5.5847764700000004 18.2059280699999988
 -25.3791936800000002  3.7044220600000002 10.3220619100000004
 -25.5178470500000003  2.2183265699999999  2.8274873199999999
 -6.2147087499999998 11.0537509099999998 17.7341506200000012
 -6.2026424499999999  9.2838199699999997 10.1905765400000003
 -18.9457276400000012 -5.4519897100000003 18.1958804200000017
 -20.5803856900000000 -4.7937516599999999 10.0988353899999996
 -22.3972395000000013 -3.6213532399999999  2.4268584199999998
 -4.8564990400000001  8.4352461999999999 17.7872300800000005
 -23.7564538499999998  4.6966648099999997  2.4917390099999999
 -23.6562083299999983  2.6953623300000000 18.3258888000000013
 -23.6439368600000002  0.7717983700000000 10.4380030900000005
 -23.7127380999999993 -0.8952509700000000  2.9233468600000001
 -19.1187243699999989 -3.3086589700000002  2.5085023099999999
 -20.5966519099999985 -2.4986604200000002 17.9468305599999987
 -21.9404418499999991 -1.9247255500000000 10.5224305900000008
 -22.1733878299999994  3.7823365899999999 10.1288549799999998
 -22.6224698400000008  1.9989027500000001  2.5423988099999999
 -22.0542294500000011  0.0534742200000000 17.8251443700000003
 -19.3926233400000001 -2.0007630800000000 10.3687735799999992
 -20.7984471500000012 -0.8969665200000000  2.4489364400000002
 -20.7601386999999988  2.5591442500000001 18.3947529699999990
 -20.6017508099999986  0.8476171900000000  9.9769556399999999
 -18.8867942500000012  0.5705635300000000 17.8359517200000006
 -19.0169487000000004  1.9853686600000000  2.7340227300000000
 -0.1903642500000000 -0.2893920600000000  5.1437364700000003
 -11.0794278500000001 17.2441120499999982 21.1244095700000010
 -11.2781477399999996 15.3406028400000007 12.7736359600000000
 -10.9614445200000006 13.6513944100000000  5.1836510100000002
 -11.1414102699999997 11.7972179100000005 20.5440316100000011
 -11.4238834199999992 10.0108221900000007 12.8343542199999998
 -10.8462868599999993  7.9967327099999999  5.1348412300000001
 -11.1867922600000007  6.1768891400000001 20.6324430899999989
 -10.9300828899999996  4.6209376400000002 12.3914745699999997
 -10.8753103000000007  3.0138382899999998  5.1443313100000001
 -10.9663652999999996  0.9589975800000000 20.2598791600000006
 -11.2893915499999995 -1.2014819100000000 12.9618980199999996
 -1.7382102100000001  0.6743087300000000 20.6323356500000017
 -1.3042388300000001 -1.1633912600000000 12.9945155999999997
 -12.5132981599999997 16.3968063800000010  4.9859166999999998
 -13.0728942799999999 14.5986569100000008 20.4416456199999992
 -13.2004862400000000 12.5846156300000001 13.2696144300000007
 -12.6955138999999999 10.8628718200000005  4.9465679199999997
 -12.7532561599999994  9.1345594899999991 20.4328231600000016
 -12.6517074399999991  7.3590273599999998 12.5905732399999994
 -12.3439275899999998  5.6562454200000003  5.2879834099999998
 -12.7239387900000001  3.5639138199999998 20.6011720400000016
 -12.6648231300000003  1.7539641500000001 12.8772908600000004
 -12.3904938599999994 -0.1973613300000000  5.3548320100000000
 -3.0745994900000002  2.0253055600000001 12.5511273699999997
 -3.0355642199999999 -0.1009415200000000  5.0138722800000002
 -14.2186981499999998 17.1020951900000000 20.4637268699999986
 -14.4505897999999995 15.4343335400000008 13.0816050900000000
 -14.3365129400000004 13.6371589699999998  5.3714063100000002
 -14.2640397199999995 11.7976646499999998 20.3525013000000001
 -14.5209010299999992  9.6041472500000005 12.8929011800000008
 -13.9573868599999997  8.3342218599999995  5.1434766300000003
 -14.4646936200000003  6.3225869799999996 20.7423515899999984
 -14.2809376799999992  4.7819334299999996 12.7730529700000002
 -14.0049858900000004  2.7011159199999999  5.3949389999999999
 -14.2223353899999996  0.8521726200000000 20.4832397899999989
 -4.4846347299999998  2.4738882699999998  4.9766855500000000
 -4.6589315600000001  1.3361739900000000 20.6160170700000016
 -4.6593639099999997 -0.6577356400000000 13.1374217000000009
 -4.5862021300000002 -3.1773531300000002  5.2893126900000000
 -16.0766054800000013 14.2626064299999999 20.5484112000000003
 -16.0580491000000016 12.4186489299999998 12.9998299199999998
 -15.6493708500000004 10.9522089200000003  5.1793536400000004
 -15.9069389099999992  9.1400482099999998 20.6371496400000005
 -15.6500541399999999  7.1189651100000004 12.5703365300000005
 -15.2325586299999998  5.5234667100000001  5.0898556499999996
 -15.3346507600000006  3.5081737899999998 20.6792454700000015
 -15.7753389599999991  1.7837007000000000 12.8770075100000003
 -6.4884301100000004  3.8614531099999998 20.1536898099999995
 -6.3654284399999996  2.0453638000000001 13.1963466100000009
 -6.0785263799999996 -0.0948086000000000  5.2226325500000002
 -6.5017700100000004 -1.7165884100000000 20.4808747599999990
 -17.3042854699999999 15.6617165400000005 13.2588972500000004
 -17.6807094999999990 13.5512634399999996  5.3268724900000004
 -17.3604142000000010 11.9971668299999994 20.6490945299999993
 -17.2211790600000008  9.8706826099999994 12.8749308399999993
 -17.0283932900000003  7.9106179900000004  5.8280597500000004
 -17.3830454699999990  6.3703195800000003 20.4786117400000016
 -17.4524139500000004  4.5469801600000004 12.7860279699999992
 -17.2628016100000004  3.1221405400000002  5.0824998800000003
 -7.7466880500000004  4.6632097500000000 12.7182241999999999
 -7.7797491100000000  2.4622872299999998  4.9515824899999998
 -7.9411420499999998  1.0235521400000001 20.8354609099999983
 -8.0301054700000005 -0.5869317200000000 13.2409970999999995
 -7.7191966599999997 -2.8090622800000000  5.4223440700000003
 -19.3978489100000004 14.7459734099999995 20.8140578100000013
 -19.1713104100000002 12.7029591100000001 12.8915854000000003
 -18.7516955699999990 10.4533385400000007  5.3333909200000003
 -19.0530824599999988  8.9691118599999999 20.8688639500000015
 -18.8297782799999993  7.4327712300000002 12.9589234500000003
 -18.7787920899999996  5.3205130799999996  5.2609399400000001
 -18.7838991300000018  3.4862053899999998 20.8677270200000002
 -9.3541783299999999  5.1601069400000004  5.0752027399999999
 -9.6492998100000005  3.4197745099999999 20.6010435399999992
 -9.6377836600000002  1.8154291300000001 12.4575626800000006
 -9.6471948100000002 -0.0689287800000000  5.2075141800000004
 -9.8121269200000008 -1.6754466800000001 20.9213040499999998
 -9.6910852599999995 -3.8042860599999999 12.8589132999999993
 -20.6741674700000004 13.3998477699999992  5.1941034999999998
 -20.5143781999999995 11.8031892099999993 20.3966834299999995
 -20.5962369599999988  9.9972168900000007 13.1038943799999998
 -20.6062222099999985  8.2409438700000006  5.3064796400000001
 -20.6718217399999986  6.2587436600000004 20.6394454100000004
 -20.5098332600000006  4.6926502299999999 13.0617301200000000
 -10.8506940499999995 -2.6600285700000001  5.1676722100000001
 -11.0690225000000009 -4.4593060700000002 20.7474770500000005
 -22.4507523300000003 12.7193094400000000 13.1919370800000006
 -21.9452643000000016 10.4218024400000004  4.9047217400000003
 -22.3392995499999998  9.1487941700000004 20.5601567299999992
 -21.9176437399999990  7.4342232399999997 12.9474628700000007
 -21.9956048799999984  5.3600527099999997  5.2178589600000000
 -12.4955316799999991 -1.9836357200000001 20.7626693899999992
 -13.0043054300000005 -3.8572323200000000 13.0136836099999993
 -12.5186627200000000 -5.4990346499999996  5.3142459700000000
 -23.8409563700000007 12.1731840699999996 20.8469178399999997
 -23.8047293700000004  9.8946320599999993 13.0150382899999997
 -23.6018004599999998  8.1553610699999997  5.4332947100000002
 -23.7768659000000007  6.2844895300000001 20.7400776700000016
 -14.3537305100000001 -1.0514011599999999 12.9187440999999996
 -14.2930385100000006 -2.6372416799999998  5.0202119999999999
 -14.4941790200000007 -4.3809148599999999 20.6324045799999993
 -14.5692029699999992 -6.4154666699999998 12.8890444800000008
 -25.2282401199999988 10.5967139299999999  4.8673612400000001
 -25.1662120199999997  8.9367111599999998 20.8506188600000009
 -24.9570922999999993  7.3149787100000001 12.8958130499999992
 -15.9248358499999991  0.2568120800000000  5.1186991199999996
 -15.7271303200000006 -1.4235011900000001 20.7431838699999993
 -16.1027386700000008 -3.9419907400000000 12.8740199499999992
 -15.7518409899999998 -5.7327494400000001  5.1752998699999999
 -15.9733258100000004 -7.3754321899999997 20.6103494900000008
 -26.9576127700000008  9.7180663400000000 12.8149417799999998
 -26.8173525800000014  8.3197084199999995  5.3813986700000003
 -17.2153223799999999  1.1805341700000000 20.9781578099999990
 -17.5581944599999993 -0.9691307800000000 12.7575113200000008
 -17.1463041700000005 -2.7782409100000001  4.8670325700000001
 -17.4436972899999994 -3.8900099600000000 20.6770946600000016
 -17.7642011099999984 -6.7128507800000001 12.9622134700000000
 -17.2456546999999993 -8.3770564400000005  5.1287099400000002
 -28.5902065999999984  9.1802796400000002 20.2418583299999995
 -28.0360577500000012  7.3157003800000000 12.7923355399999998
 -9.3527412900000009 16.5302958300000000  4.9760114000000000
 -9.6534528300000009 14.3426815300000001 20.9545746299999998
 -9.7589781700000007 12.7731834099999997 13.1102230100000003
 -9.5626948400000007 11.2224899100000002  5.0716398600000003
 -9.4213026699999993  9.2175305999999999 20.6079324899999996
 -9.3604325399999997  7.3743587399999999 12.6488541600000008
 -18.8056225099999992 -8.9242645700000001 12.8934095000000006
 -1.6104940700000001  2.4464541299999998  4.8856810800000003
 -2.8365785600000000  3.7276003599999998 20.5803388399999996
 -5.0716530300000002  4.6094004100000001 12.8880818999999995
 -6.4491347499999998  5.3163165200000000  5.0037744899999996
 -8.2494301300000004  6.2907842299999999 20.4681481100000013
 -27.0473687900000002  6.2611848700000001 20.8219491800000007
 -26.8015542400000015  4.5252904899999997 13.0437241999999998
 -26.8522727199999984  2.8061240299999999  5.0193338699999996
 -8.0755212800000002 12.0472658700000004 20.2674604999999985
 -8.1949458899999996 10.1286034899999997 12.9514396000000005
 -7.8865977999999997  8.2563849800000000  4.8599397800000004
 -18.7666613600000005 -7.0145223200000002 20.6064983099999992
 -20.8857936299999984 -6.0513787800000003 12.6981009500000006
 -22.1069544100000002 -5.6376393100000000  4.8459863500000004
 -4.9310854300000004  6.4876690200000002 20.6951763600000014
 -6.2169244700000004  7.7964979000000003 12.8258381000000004
 -24.9115953499999989  5.3352104000000002  5.0458970399999998
 -25.4706109500000011  4.0065698100000002 20.3860105999999988
 -25.6125365400000007  1.6741548799999999 12.6418790199999993