Li                                      
   1.00000000000000     
    21.0004999999999988    0.0000000000000000    0.0000000000000000
     0.0000000000000000   21.0004999999999988    0.0000000000000000
     0.0000000000000000    0.0000000000000000   21.0004999999999988
   Li
   500
Direct
  0.9851128044570387  0.0182060336658623  0.0312486016999571
  0.9874107902192790  0.1146323549439288  0.1099844298945243
  0.9897039284778941  0.2224566686507430  0.2068984819409039
  0.0150523554201101  0.2879346586986031  0.3168772805409361
  0.0146686074141087  0.4109751501154761  0.4113696331039733
  0.0231850294040612  0.5022945129877883  0.5154970291183574
  0.0134300497607214  0.5843758139091904  0.5964793995381044
  0.0086992514463944  0.7171445170353081  0.6975873088736009
  0.0343173143496571  0.8244985233684901  0.7948461089021706
  0.9946161534249214  0.9160547948858380  0.9151242770410235
  0.0927081274255386  0.9980845013213937  0.1062471988762184
  0.0898635294397749  0.1291235727720803  0.2163178800504753
  0.1031440946644153  0.1846734111092587  0.3128432451608276
  0.1033149715482935  0.2791712649698823  0.4084163315159159
  0.1097584938453835  0.4004361848527438  0.5066146334611048
  0.1256815709149777  0.4878380767124568  0.5917545648913105
  0.0895076607699821  0.5984844537034846  0.7180155405823641
  0.1235762229470723  0.7167790257374804  0.7857560886645558
  0.0945058450989293  0.8074521006642712  0.9214578957643837
  0.1060064617509084  0.9085116735315850  0.0161217794814377
  0.2042412985405093  0.0131530644508473  0.2213921301873754
  0.2110511116402023  0.0964726330325476  0.2823096926263631
  0.2056393204923666  0.1973245313206817  0.3984772772076823
  0.2389830094521557  0.3029264184186076  0.5028275550582109
  0.2207015152020162  0.4072056689126455  0.6083686402704700
  0.2035492402561871  0.5103744948929787  0.6951258612890143
  0.1794852141615664  0.6130357424823245  0.7958906083188495
  0.1972070160234267  0.7266056836742010  0.9027961329492129
  0.1914101340444248  0.8066591138306194  0.0096198000047636
  0.2083830651651155  0.9070062198519082  0.1128669650722571
  0.3097487064593665  0.0168582367086501  0.3170310144996549
  0.2841504545129894  0.1246880555224905  0.3833709159305698
  0.3135898297659594  0.1896469555486746  0.5077504587985970
  0.3176087455060568  0.3044940253803503  0.5799373357777213
  0.3088446413180606  0.3895138420513788  0.6920950534511050
  0.2901137001499947  0.4689823399442901  0.7785496611985394
  0.2776565305587937  0.5852903373729177  0.8816991514487782
  0.3108007199828577  0.7131381357586690  0.0115248784552762
  0.3061176919597131  0.7915398785743193  0.1141973591104986
  0.3095716373419677  0.9070540629984976  0.2224748072664937
  0.4088884031332611  0.0345236132473019  0.3938309073593516
  0.4113559700959470  0.1109152472560169  0.4866268836456271
  0.4201074636318154  0.1871742134711099  0.6047818428132672
  0.3940581614723442  0.2819234322992301  0.6959912040189522
  0.4006374243470390  0.3661419885240846  0.7837730373086345
  0.4016609023594668  0.5005485788433575  0.9031486607461758
  0.3755870712602061  0.5789243384681342  0.9963980033808753
  0.4059873641103806  0.7047519454298694  0.1148709383109932
  0.4164718044808424  0.7927265650817858  0.2234663288969330
  0.4069449070260234  0.9138418123378003  0.3160382743268002
  0.5163863836575331  0.0078169929287384  0.4945544244184674
  0.4962562524701823  0.0823476702935650  0.6031452360658065
  0.5142012442560926  0.1990567291254948  0.7206648722649476
  0.5084107316492492  0.2938029732625438  0.7850866455560563
  0.4840265779386215  0.4011422851836883  0.8921026546986965
  0.5142443122782794  0.5225187252684478  0.9742046103664208
  0.4932223528011264  0.5912681179019543  0.0750315335349185
  0.5019884897978599  0.6864030799266700  0.2097746120330441
  0.5131947077450505  0.7880711787814576  0.3058591500202397
  0.4934824223232752  0.8879862360419963  0.4222033265874643
  0.5941836803885607  0.0034303954667720  0.6148661846146553
  0.6159444984643230  0.0910280617128194  0.7222709883098020
  0.6063415147258411  0.1935335825337461  0.7998602809456941
  0.6135318687650297  0.2895425808909309  0.8863355215352016
  0.6150767734101592  0.3953324006571250  0.9862893107306974
  0.6231294592985890  0.5094970524511311  0.0699702964215163
  0.5898360772362565  0.5819679983809891  0.1809769338825262
  0.5923314982976606  0.6650140901407084  0.3183950105949833
  0.5934297064355576  0.7843732001619017  0.4105562034237309
  0.6118556467703158  0.8952711987809820  0.5035121220923315
  0.7110502311849700  0.0145052913025907  0.6718756334372955
  0.7119463627056533  0.0955812447322657  0.7883664284183709
  0.7255509597390528  0.1910880321897110  0.8933455827242227
  0.6965803595152522  0.2861351482107537  0.9778081940906134
  0.7099264917501955  0.4102952977310039  0.0642937730054030
  0.6990685112259243  0.4849680779029057  0.1909537015785361
  0.6964622923263732  0.5844958910502100  0.2920128954072538
  0.6921705449870217  0.6627394347753608  0.4266376471988735
  0.7000071917335333  0.8098183128973133  0.4923241099021425
  0.7071647084593238  0.8897769653103467  0.5902876636270591
  0.8113181014737734  0.9942283331349273  0.8027000090474061
  0.8196459512868728  0.1056661917573365  0.8972946920311387
  0.8220158329563603  0.2384641808528372  0.0425672355420090
  0.7868591643056106  0.3054234265850795  0.0973299426204122
  0.7958406042713264  0.4122619347158434  0.1946468855503412
  0.8171545567962681  0.4980188685983649  0.2998571576867235
  0.7905708783124226  0.5816474102997518  0.4000508183138507
  0.7923053074926756  0.7048821775671996  0.5104248008380736
  0.7915258879550464  0.8032261522344726  0.5817206942691868
  0.8126058917644841  0.8950474869645930  0.6765668198376247
  0.9118891607342690  0.9959918006714119  0.9111065398442904
  0.8490657879574286  0.0947192995404862  0.0158038227661237
  0.8878411480679063  0.2145044756077255  0.1281151205923692
  0.8782730177852898  0.3189310392609670  0.2145459298588150
  0.9158869703102326  0.4268746229851672  0.2922605576057720
  0.8965930144520371  0.5013779300492871  0.4174870503083241
  0.8728300488083605  0.6147280221899507  0.5270997481012358
  0.9055302826123182  0.6969452274945809  0.6165045551296373
  0.9042558039094288  0.8216845365586565  0.6910423018499543
  0.9391264988928825  0.9088995547725034  0.7920681664722267
  0.0773793147782200  0.1005108725982709  0.0138917625770816
  0.0896400890454956  0.1933669493583494  0.0870029375491086
  0.1054805385586093  0.2760267626961266  0.2131611414013932
  0.1031872103045188  0.4178701859479546  0.2949240565700819
  0.1100637094354866  0.5436792666841299  0.4124499540487108
  0.1110909702149954  0.6134103907049848  0.5117011437822896
  0.0901569776910094  0.7106289659770013  0.6115716063903207
  0.0915564886550300  0.7951281098069103  0.6857458841456179
  0.0980419980476626  0.9192246094140586  0.8096918001952318
  0.0734716197233425  0.9860479698102438  0.8901224799409562
  0.1959180814742538  0.0888083945620366  0.1272056255803449
  0.2081749615485364  0.2089369910240251  0.1896635208685495
  0.2002178443370397  0.3041377429108820  0.3286438384800334
  0.1863559072403049  0.4094392028761220  0.4207019756672494
  0.2067348567891258  0.5085358524797030  0.5250302535653901
  0.1677517287683656  0.6208172386371729  0.6188982738506255
  0.1923631051641621  0.7058025237494334  0.7042253408252179
  0.1693641170448288  0.8134937611009292  0.8047601228542192
  0.1948245751291608  0.8980818594795394  0.9107320911406873
  0.1828608756934358  0.0014582509940269  0.0162663774672041
  0.3124055479631451  0.1193530073093498  0.2058617675769625
  0.3061845460822354  0.2217529377871941  0.2870058165281790
  0.2848097192923973  0.3128022285183718  0.4146155234399203
  0.3126475407728364  0.4251386324135140  0.4908969834051575
  0.3040281417109085  0.5084489155020151  0.5818558910502105
  0.3154792966834137  0.5889982548034567  0.7028563562772305
  0.3045407166496048  0.7165386362229498  0.8022280207614116
  0.3123648441703750  0.8184204395133463  0.8899923378014805
  0.2994638403847532  0.9027867326968391  0.9949638013380664
  0.3196402261850935  0.0134183952763038  0.0980915106783158
  0.4026140691888287  0.1220317663865131  0.2851452641603771
  0.4166251708292634  0.2181614042522781  0.4109067531725401
  0.4143236599128599  0.3092558724792269  0.4943965038927658
  0.3959900702364223  0.3980741525201807  0.6068400476179150
  0.4107833861098555  0.4991873141115661  0.7032956972453022
  0.3904508892645424  0.5758733853955889  0.7859273345872708
  0.3681575333920648  0.7021095559629558  0.9071282702792800
  0.4039060317611458  0.8126222804218912  0.0086309787862220
  0.3922740672841130  0.9037678988595488  0.1031319359062906
  0.4131681507583167  0.0196210280707589  0.2077211409252158
  0.5148693016832908  0.1353489997857196  0.3796427175543471
  0.4952938425275590  0.2181945644151355  0.5166757210542627
  0.5062727082688525  0.3091014728220784  0.6345921197114350
  0.4887801504726070  0.4083881617104339  0.7062811809242646
  0.5221090393085888  0.5050524663698468  0.8009318811456865
  0.4895882512321137  0.6229674888693140  0.8904815099640473
  0.4709067598390533  0.6879402533273051  0.9977793214447246
  0.4943101688055052  0.7969582662317549  0.0991683207542664
  0.5177538553843988  0.8862332258755714  0.2038144406085536
  0.4849570719744776  0.0206949863098487  0.3182724520844715
  0.5963677012452067  0.0936315973429203  0.4817038260993769
  0.5984657984333737  0.1724349367872193  0.6026892178757635
  0.6269470660222396  0.3035896883407503  0.7048168800742829
  0.6162503368967407  0.3986272817313861  0.8142218028142167
  0.6056816313897286  0.5087751039260979  0.9102815013928236
  0.6040149963096084  0.6107062036618203  0.9989484912264004
  0.5692350963072315  0.6870570886407492  0.0715568034094431
  0.5914564377038616  0.7620710492607330  0.2072672841122838
  0.5828180895692938  0.8873660065236564  0.2987135053927261
  0.5953887050308353  0.9990199338110983  0.3944284059903325
  0.7026686021761392  0.1133777114830608  0.5913332649222625
  0.7186350267850798  0.2069945291778765  0.7016608961691375
  0.7203888869312607  0.2922910264041363  0.8137167934096823
  0.7357848041713311  0.4197376295802471  0.9121527049355933
  0.7161839103830872  0.5301948672650667  0.9870962943739414
  0.7164370795933408  0.6140712178281476  0.0922550629746937
  0.6800735449156008  0.6634205771291164  0.1957641594247761
  0.6750958267660323  0.7877704121330424  0.3281345320349516
  0.6793467946001286  0.9098912892550146  0.3891088031237331
  0.6885697364348502  0.0201804966548380  0.4947745177495761
  0.8000810885455110  0.0963459346206008  0.7176575143449000
  0.8245464869884032  0.1950637032451610  0.8060221561391430
  0.8030776219613784  0.3086617490059780  0.9244720387609817
  0.7919586266993619  0.4173386562224692  0.0111099102402292
  0.8258315092497810  0.4965684036094373  0.0937785686055079
  0.8168166938882422  0.6268766305564171  0.2076870422132799
  0.7719646846503636  0.6882306626032744  0.3113945039403845
  0.7822322468512652  0.7946399828575537  0.4129661189019274
  0.7789949963096134  0.9044131092116885  0.4712555772481579
  0.8140942668031741  0.0051952363038978  0.5937203261827122
  0.8923352853503488  0.0770553239208596  0.7881359472393541
  0.8906920073331577  0.1927762338991954  0.9020097659579562
  0.8958031127830282  0.3289287064593722  0.0214359886669371
  0.9243038694316823  0.3999496397704831  0.1164795209637859
  0.9144480926644576  0.5196456312944946  0.1885572253041587
  0.9025307087926464  0.6116977224351814  0.2919227337444354
  0.8786823408966455  0.6721689921668528  0.4014191285921740
  0.9015737839575237  0.7939086236042030  0.4864346272707820
  0.9012279055260564  0.9015181138544293  0.5712397790528811
  0.8939508687888349  0.9893251974952975  0.6688220713792532
  0.9823082569462613  0.0840161991381123  0.9123737953858253
  0.9511470203090369  0.1820930501654701  0.0044459108116470
  0.9995351744006129  0.2900658360515251  0.1133477412442545
  0.0100886331277792  0.3843190833551589  0.2088921363777061
  0.9938853760624724  0.5301040656174862  0.2993906002238020
  0.0002720006666479  0.5917125787481226  0.4166394542987106
  0.0017709492631113  0.7003269250732131  0.5035490716887665
  0.9884511625913674  0.7998708330754027  0.5971528620747151
  0.9988937782433780  0.8892233194447741  0.7053714416323444
  0.9730236337230096  0.9922284397990495  0.7970563129449317
  0.1997367696007259  0.2014743801338028  0.0059141853765396
  0.1910489650246419  0.2934588195519154  0.0977956196281013
  0.1835849446441742  0.4027187257446272  0.1994890893073986
  0.1617478331468334  0.4969825347015515  0.2944559815242513
  0.2278560305706989  0.6176076879121908  0.3799931006404620
  0.1832483269445930  0.7107591409728329  0.4655333668246016
  0.1920085231304043  0.7862803318968616  0.5873965353205861
  0.2110570814980619  0.9023805509392631  0.6813748301230902
  0.1846317449584518  0.9972568734077782  0.7865696945310816
  0.1948374295850073  0.0864563486583663  0.8889368900740493
  0.2888555286778853  0.2187523506583204  0.1057895316778144
  0.2945834399180995  0.3225677979095707  0.1945703059450992
  0.2800179081450409  0.4192888612175878  0.3120294864407995
  0.2942485655103440  0.5357588676460097  0.4111996838170526
  0.3134216632937310  0.6202916392466875  0.5186123520868549
  0.3051446017951918  0.7094838646698918  0.5923822132806364
  0.2874623423251847  0.8083038794314419  0.6867058003380890
  0.2792337339587121  0.8974253484440879  0.8144407871241128
  0.2878768686459878  0.0103783786100351  0.9101271998285725
  0.3059688593128769  0.0949903149925007  0.0133974476798144
  0.4188131530201673  0.2110283826575525  0.1699469369776878
  0.3882843379919549  0.3140923278017169  0.3019313487774085
  0.4060251779719550  0.3991287112211594  0.4011993100164304
  0.4010903135639623  0.4922998823837546  0.5034638384800374
  0.4152322558986725  0.5886182467084140  0.6176170419751941
  0.3811314625842215  0.6983904168948385  0.7156806528415984
  0.3940707506964145  0.8193099869050755  0.8082934130139776
  0.4031008261708067  0.9161724677983827  0.9092867698388147
  0.4130346186995553  0.9821154582033742  0.9971233189685975
  0.4206251241637133  0.1272816756743893  0.0957018970976904
  0.4847186805076049  0.2224348205995099  0.2638359553344003
  0.5255362277088622  0.3064212237803829  0.3792656122473304
  0.5009417099592852  0.3763776714840148  0.5054501988047875
  0.5147566229375471  0.5074157681959974  0.6054693164448466
  0.4929005452251118  0.5867726516035319  0.7153390100235697
  0.4689991252589252  0.7039058570034058  0.8009003452298771
  0.4921009495012001  0.8064673774433970  0.8911733406347437
  0.5274840927596927  0.8761907773624458  0.0019174695840576
  0.4878612871122101  0.9971933034927716  0.1058611456870082
  0.5236282098045280  0.0952507659341464  0.1729139272874463
  0.6001833465869879  0.2174411990190706  0.4017027218399534
  0.5769872155424878  0.2704506311754500  0.5144222823266134
  0.5938851379729044  0.3898807690293111  0.6116529949286900
  0.6110764143710838  0.4893629156448682  0.6810175324397036
  0.6032373095878683  0.6131446536987184  0.8085690893073973
  0.6006986457465331  0.7204989485964646  0.9052410694983450
  0.5876978176710068  0.7965987781243271  0.0027112811599750
  0.6122864460369968  0.9109330773076820  0.1039394557272431
  0.5867627037451513  0.9914409690245449  0.2085428204090363
  0.6092614628223103  0.1116027794576340  0.2915274922025688
  0.6989422194709647  0.1859287888383605  0.4888090607366493
  0.7016666269850731  0.2995314478226732  0.6104571219732833
  0.7074731558772385  0.3977792490655006  0.7177753205876058
  0.6826305487964603  0.5039870174519621  0.7942141787100283
  0.6916399909525950  0.6242797619104294  0.8845272731601597
  0.7169010980690942  0.7030230861169997  0.9920867455536779
  0.6869282807552182  0.7943491031165948  0.1022876283898029
  0.6960924411323504  0.8849975233923004  0.2077124373229182
  0.6777872969691217  0.0072673122068494  0.3089250484512291
  0.6885718744791802  0.1025600247613170  0.4039334225375555
  0.8018663227066014  0.2150894654889157  0.5833450294040645
  0.7926952529701694  0.3009110944977493  0.7054287931239713
  0.8165703383252776  0.4104064012761626  0.8062433837289618
  0.8141714473464887  0.5161760291421658  0.9053621209018843
  0.8154263517535298  0.6069416251993971  0.0002823285159863
  0.8074522825647037  0.6841461684245616  0.0941835846765571
  0.7718352439227658  0.7599633708721214  0.2117099816671058
  0.7713595628675520  0.8994157691483551  0.3039508492654903
  0.8115560581890904  0.9962305049879774  0.3744058155758196
  0.8085099011928278  0.0951843313254415  0.4844444108473596
  0.9090822823266080  0.1919019985238464  0.7059572595890558
  0.9125650508321215  0.3019221889954977  0.8129023942287077
  0.9234643089450216  0.4116236870550694  0.8963483021832843
  0.9121559720006687  0.4788953739196700  0.9977337187209798
  0.9010265431775437  0.6224714725839888  0.1079468422180412
  0.9101845379871918  0.7087674826789865  0.2073252208280749
  0.8714304468941236  0.7721016947215560  0.3335137082450430
  0.9019444008475972  0.8852611175924352  0.3804333506345117
  0.9050634308706904  0.9768767491250188  0.5010679112402059
  0.9090793043022813  0.0876117282921811  0.5921991395442987
  0.0120988043141850  0.1694629918335266  0.8020749744053717
  0.9899787681245655  0.2857171938763372  0.9042979076688624
  0.0214197128639810  0.3772641022832772  0.9939287536011037
  0.9819181219494766  0.4961906868884043  0.1031566038903833
  0.9847868531701636  0.6065889712149684  0.2032595542963236
  0.9859975005357029  0.6913750186900316  0.3016722168519763
  0.9942648094093016  0.7688154353467809  0.3812668269803083
  0.9902804723697045  0.8894937887193137  0.4526235137258610
  0.9775558505749871  0.9687044579890980  0.5929859179543371
  0.9884811428299329  0.0758819099545249  0.6846287664579407
  0.0884583224208981  0.1649767976952958  0.9274646517940042
  0.0882514244898900  0.2863298478607632  0.0381725811290181
  0.0962987605057037  0.3848048713125891  0.1113423889907352
  0.0962745444156070  0.5244928768362627  0.1847653589200249
  0.1116515454393934  0.6248171210209250  0.3091009766434141
  0.1034260198566699  0.6992170900692827  0.3862846251279706
  0.1027482726601718  0.8125659179543376  0.4855991243065674
  0.0858986490797804  0.8735729015975835  0.5750429418347167
  0.0856296611985456  0.9804566624604192  0.6724256989119297
  0.0809953424918461  0.1044646870312604  0.7866470369753102
  0.2817993162067580  0.3018188362181888  0.9874660369991162
  0.2769984381324235  0.4028949982143288  0.0924308630746893
  0.2805765057974838  0.4889498007190269  0.1685208737887223
  0.3065006242708535  0.5883876288659806  0.2764952491607318
  0.3279782752791576  0.6890947648865478  0.4100535858670042
  0.2732783314682976  0.8044503459441472  0.4904738268136484
  0.3051004142758487  0.9070777895764408  0.5769203442775179
  0.2798353229685020  0.0008434489654974  0.6760005009404537
  0.3060935596771515  0.1172234437275321  0.8058326311278279
  0.3219753039213344  0.2143968162662802  0.9068865503202304
  0.3734526577938624  0.3272501107116526  0.0944018628127878
  0.3964446498892897  0.3969187700292878  0.2074282255184414
  0.4196417271017339  0.5153430451655936  0.2927616618651925
  0.4135632175424391  0.5744665617485296  0.3965167957905749
  0.4011826618413821  0.7196930230232610  0.5163367596009607
  0.3951144034665859  0.8298663008023652  0.5919372138758590
  0.4046141896621478  0.9101474550605957  0.7273327539820471
  0.3831346106045075  0.0305385447965492  0.7893578190995427
  0.3848646789362178  0.1007417313873447  0.8986949691674013
  0.4182700830932617  0.2108482431370646  0.0224746101283273
  0.5174852660650942  0.3370756605795080  0.1964795857241484
  0.5058484126568388  0.4106731796861993  0.2977151167829319
  0.5016565391300176  0.5058513597295331  0.4074814737744319
  0.5027046008428400  0.6042291412109222  0.5001474898216713
  0.4692156905787925  0.6961609614056812  0.6176291693054949
  0.4762203638008629  0.7774502549939299  0.6885660084283671
  0.5243760319992390  0.9275181252827309  0.8115282869455456
  0.4926490631175469  0.9989662950882092  0.9174564872264952
  0.5209669388824096  0.1032077131496862  0.9999738620509007
  0.5321467698388105  0.2262827142210924  0.0842041799004818
  0.6034120582843272  0.3138805757005798  0.2979245856051023
  0.5867159643818027  0.3952068255517744  0.4295119278112409
  0.6035526858884310  0.4901993909668789  0.5112832775410112
  0.6059109935477736  0.6316785143210879  0.5974027966000790
  0.5921351615437729  0.6888753801099980  0.7100323644675157
  0.5814036818171004  0.8043021689959744  0.7805179710006911
  0.5986105178448113  0.8828669017404351  0.8962944915597220
  0.5904111144972717  0.9973869555486772  0.0045202118997167
  0.6089673660150936  0.0983307992666838  0.0882715711530651
  0.6053044598938087  0.2272462103283246  0.1851463550867862
  0.7005580629032622  0.3145689640722864  0.4354875817242458
  0.7010672112568770  0.4038510244994171  0.5309889016928153
  0.7015623856574820  0.5013701821385226  0.6228178800504764
  0.6831299297635738  0.5970567224589871  0.7137771872098284
  0.7057199104783223  0.7375951929715967  0.7803059803338002
  0.6905822694697719  0.8027585876526757  0.8788690435942001
  0.7142025818432884  0.8864250703554646  0.9915657608152202
  0.6887194152520166  0.9948842122806596  0.1091190285945558
  0.6842036808647407  0.1206118759077199  0.2043828585033722
  0.6901736834837280  0.2311327144591786  0.3088584624175610
  0.8016235237256240  0.3113027227923126  0.4932662103283221
  0.7982810118806682  0.3908616990071678  0.6039433351586894
  0.7906104307040280  0.5077017794814438  0.7138417628151714
  0.7973231546867936  0.6119771138782397  0.7969870450703525
  0.7924364681793321  0.7129486012237791  0.9045191728768387
  0.7944282669460279  0.7984990766886497  0.9847707578391010
  0.7932724744648922  0.8995152105902235  0.1050978014809161
  0.7777078360039056  0.0092234432513507  0.2124229132639712
  0.7796911340206165  0.1194379724292247  0.2983328754077306
  0.7903020975691035  0.1979518625746977  0.3852327935049189
  0.9351807052213061  0.2945528806456963  0.6073844941787101
  0.9278123120878092  0.3856124916073398  0.7069914249660698
  0.9129810847360744  0.5096404495131068  0.8081675622009001
  0.9034240118092427  0.6265166215090119  0.8904778610033119
  0.8875396233422990  0.6976016585319371  0.9807784262279498
  0.9015956724839853  0.7807373076831539  0.0956214399657185
  0.8681097664341308  0.8918579533820647  0.2124406323658974
  0.8901270450703578  0.9896850536892003  0.2782432089712117
  0.9023464955596268  0.0976188143139467  0.3676669336444363
  0.8984003614199665  0.1918433280159988  0.4925079255255795
  0.0337086712221151  0.2688598142901384  0.7270204233232533
  0.0028183824194628  0.3877550867836490  0.8189544020380453
  0.9916153553486851  0.5014226837456235  0.9155588585986081
  0.9870998414323466  0.5762667431727806  0.0044536744363199
  0.9968525716054373  0.6923211542582308  0.0612518835265803
  0.9642250465465096  0.8141409214066329  0.1939253517773381
  0.9897289269303116  0.8647307492678777  0.2894091302588038
  0.9865977862431876  0.9865397895288197  0.3931082726601716
  0.9923628923120873  0.0953936487226485  0.5159201052355868
  0.0232573467298423  0.2023437456251074  0.5943473850622638
  0.0862564705602225  0.2680575224399391  0.8122569291207355
  0.0888965167495996  0.3970237203876081  0.9080681383776579
  0.1097927620770918  0.5033634722982754  0.9968703221351873
  0.0826986176519640  0.6141160815218711  0.1034340653793961
  0.0792989509773605  0.7221933215875822  0.1961894669174526
  0.0845387519344811  0.8086119620961369  0.2903907906954615
  0.0973458460512830  0.8958657955762988  0.3891142720411409
  0.0911844408466465  0.9837517725768450  0.5062150091664464
  0.0863440099045292  0.0643141906145104  0.6022224551796356
  0.1174478174329181  0.1916998804790353  0.6833247246494096
  0.1684127292207336  0.2889227999333315  0.9198793171591149
  0.1778429980238556  0.4074138963358038  0.0057710283088497
  0.2009952463036626  0.5063231561153287  0.0874377052927287
  0.1968955862955610  0.5962505449870221  0.1988685350348831
  0.2060832323039961  0.6945322501845226  0.2938420775695789
  0.2152831975429166  0.7987068079331436  0.3783018209090230
  0.2097952205899887  0.9047367429346949  0.4871601338063414
  0.1918695883431312  0.9688476331515901  0.5666890497845287
  0.1988896669126916  0.0774670341182357  0.7104221518535283
  0.1988270336420541  0.2136535758672409  0.8165048179805225
  0.3634840084759858  0.3994764996071538  0.9746451070212601
  0.4033426923168477  0.4681325620818555  0.0860406466512700
  0.4051989747863161  0.5774062760410459  0.1933165900811886
  0.4011299064307963  0.6730599028594568  0.2792793814432954
  0.3851373543487071  0.7714861389014516  0.3995654003476119
  0.3916673574438718  0.8965246598890531  0.4847589114544917
  0.4155391981143310  0.9841480564748437  0.5959145187019388
  0.4156092316849609  0.1129332944453694  0.7091913083021808
  0.3979078555272508  0.2081160181900401  0.8104854251089293
  0.4132761272350649  0.2893967600771390  0.8887451551153518
  0.4932099697626242  0.4142930439751424  0.0457091074022031
  0.4932464603223750  0.4967576467226991  0.1500628913597311
  0.5257099440489483  0.5804888659793832  0.2851581152829681
  0.4965955801052360  0.6790994819170990  0.4055589481202801
  0.5016321873288732  0.7949543682293267  0.5135488331230178
  0.5189159886669330  0.8902468022189964  0.6188296202471335
  0.5231452836837249  0.9987584871788755  0.6868935672960177
  0.5203824908930770  0.0703985938430023  0.8250156486750342
  0.4888802109473573  0.2141138082426579  0.8772804966548406
  0.5014055546296490  0.3199908245041811  0.9816954486797940
  0.6030397642913243  0.4131304945120320  0.1718322706602251
  0.5949866512702044  0.4909011199733371  0.2936537615771044
  0.5892829789766907  0.5637821713768716  0.3991904707030756
  0.5788038846694121  0.6805812480655220  0.5034908154567717
  0.6022785538439592  0.7825502897550081  0.6014797561962837
  0.6056817861479473  0.9039550891645405  0.7019675626770763
  0.6246130634984866  0.9896382571843532  0.8157892716840109
  0.6192998828599343  0.0948662655651091  0.8896000880931396
  0.6015079693340653  0.1984118573367297  0.9941578095759596
  0.6084613085402708  0.3315217547201286  0.1016670731649256
  0.6902991857336715  0.3959984652746371  0.2950804114187733
  0.6988976300564289  0.4965067855527252  0.4244432923025627
  0.6820846346515594  0.5725264669888830  0.5127232080188548
  0.7214989728815979  0.6976284036094356  0.6020584933692064
  0.7020661993762047  0.8046609761672343  0.7017375524392264
  0.6971996571510175  0.9134020194757255  0.7912454151091666
  0.6952127349348842  0.9919838332420667  0.9125377681483755
  0.7050878583843243  0.1054519625723174  0.0073818928120772
  0.6940603080879058  0.1966741977571971  0.0944324806552217
  0.6853157724816086  0.3368484721792342  0.1948171881621832
  0.8137643651341619  0.4153132296850046  0.4059623056593864
  0.7896747658389103  0.4979235294397739  0.5296623032784922
  0.7866258731934934  0.5960413285397976  0.6191451227351763
  0.8322461041403741  0.7016453727292173  0.7055073141115713
  0.8267621889955024  0.8062761891383516  0.8128937158639076
  0.8021576829123092  0.9183091450203591  0.8971831394490621
  0.7946352891597854  0.9988777491012115  0.0160012061617607
  0.7792838170519758  0.0935963091354992  0.1378455455822447
  0.7840102878502861  0.2167471726863681  0.2091142058522450
  0.7972259508106916  0.3102815199638087  0.2895444446560802
  0.8996816713887767  0.4074741715673440  0.5145690093093052
  0.8726291312111627  0.5064141220447098  0.5951761039022898
  0.9452087897907191  0.5861187357443853  0.7156905030832590
  0.9233737958620054  0.7096262212804447  0.7961113873479206
  0.9171761477107694  0.8171127592200165  0.9000286793171597
  0.8873732620651893  0.8839875926763625  0.0014074755362969
  0.8795874236327705  0.0019547491726399  0.1011174995833457
  0.9058629194543002  0.0972772733982552  0.2009693483488491
  0.8852471174495875  0.1812913216352001  0.2917400642841841
  0.9103780167138851  0.2900630065950836  0.4006003614199685
  0.9943211242589456  0.4106145220351891  0.5998291769243593
  0.0045875455346334  0.4997280088569340  0.6942061636627699
  0.0271682445656083  0.5701308535511060  0.8075173719673359
  0.0194886031284938  0.7078601657103434  0.9015151363062799
  0.0091749872622060  0.8178507897431047  0.0204774243470425
  0.9891891878764767  0.9013352263041341  0.1099605195114393
  0.9970415475821994  0.9962729796909571  0.2199236308659351
  0.0142326258898606  0.0925675707721254  0.2895757548629803
  0.9932840108568826  0.1729482536130078  0.3951711625913674
  0.0040291912097317  0.3014767815052011  0.4807001885669422
  0.0980617828146961  0.4054064650841624  0.6925310344991757
  0.0951800719030516  0.4992064879407607  0.7839573295873876
  0.1083380124282769  0.6000398071474464  0.9074871764957990
  0.0996941334730153  0.6860322992309733  0.9892208814075829
  0.1120614275850542  0.7893259360491385  0.1097349367872198
  0.0959140820456668  0.8724749801195202  0.1822470093569208
  0.1247135111068758  0.9898958696221527  0.2815877431489753
  0.1013189862146149  0.0773015409156912  0.4042091850194041
  0.1189999238113373  0.1796535372967298  0.4978818918597199
  0.1162810690221647  0.3155180033808733  0.5870561924716071
  0.1709924254184401  0.3570014818694816  0.7968547048879771
  0.1840601542820437  0.4927899430965894  0.8972456098664310
  0.2270340610937822  0.6127770853074921  0.9847329163591354
  0.2183190362134226  0.6888802047570266  0.1095738201471406
  0.2204220261422378  0.7991090412133062  0.2034349072641106
  0.1987867750767833  0.8818754362991328  0.2930547463155619
  0.1954364496083443  0.0058324739887112  0.4023541068069818