Li 
 1.0000000000000000
    21.0004999999999988    0.0000000000000000    0.0000000000000000
     0.0000000000000000   21.0004999999999988    0.0000000000000000
    -0.0000000000000000   -0.0000000000000000   21.0004999999999988
 Li 
 500
Cartesian
 -0.3126385500000000  0.3823358100000000  0.6562362600000000
 -0.2643797000000000  2.4073367700000001  2.3097280200000001
 -0.2162226500000000  4.6717012699999998  4.3449715700000002
  0.3161069900000000  6.0467718000000001  6.6545813300000001
  0.3080480900000000  8.6306836400000009  8.6389679800000003
  0.4868972100000000 10.5484359199999993 10.8256953599999992
  0.2820377600000000 12.2721842799999994 12.5263656300000008
  0.1826886300000000 15.0603934299999995 14.6496822800000004
  0.7206807600000000 17.3148812399999983 16.6921657100000012
 -0.1130634700000000 19.2376087200000008 19.2180673800000008
  1.9469170300000000 -0.0402264300000000  2.2312443000000002
  1.8871790500000001  2.7116595900000000  4.5427836399999997
  2.1660775600000002  3.8782339700000001  6.5698645700000000
  2.1696660600000000  5.8627361499999999  8.5769471700000004
  2.3049832499999998  8.4093601000000007 10.6391606099999994
  2.6393758300000001 10.2448435300000007 12.4271417399999997
  1.8797056299999999 12.5684727699999996 15.0786853599999997
  2.5951624700000000 15.0527179300000000 16.5012707399999989
  1.9846699999999999 16.9568978399999999 19.3510765400000011
  2.2261886999999998 19.0791994000000003 21.3390654300000016
  4.2891693899999996  0.2762209300000000  4.6493454300000003
  4.4321788700000004  2.0259735299999999  5.9286447000000004
  4.3185285499999999  4.1439138199999999  8.3682220600000008
  5.0187626900000000  6.3616062500000004 10.5596300700000008
  4.6348421699999998  8.5515226500000008 12.7760456300000005
  4.2746358200000003 10.7181195799999998 14.5979906499999998
  3.7692792399999999 12.8740571100000007 16.7141007200000011
  4.1414459399999997 15.2590826600000007 18.9591701899999983
  4.0197085200000000 16.9402447199999990  0.2020206100000000
  4.3761485599999999 19.0475841199999998  2.3702627000000001
  6.5048777099999997  0.3540314000000000  6.6578098199999998
  5.9673016199999998  2.6185115099999998  8.0509809200000007
  6.5855432199999999  3.9826808900000001 10.6630135100000007
  6.6699424599999997  6.3945267799999996 12.1789740200000001
  6.4858918900000004  8.1799854399999994 14.5343421700000004
  6.0925327600000001  9.8488636300000003 16.3499321600000016
  5.8309259700000000 12.2913897300000006 18.5161230299999993
  6.5269705199999999 14.9762574199999996  0.2420282100000000
  6.4286245900000001 16.6227332200000006  2.3982016399999999
  6.5011591700000002 19.0485888500000016  4.6720821900000002
  8.5868609100000004  0.7250131399999999  8.2706459700000003
  8.6386810500000006  2.3292756500000000 10.2194078699999995
  8.8224667900000000  3.9307520700000000 12.7007210900000000
  8.2754184199999994  5.9205330399999996 14.6161632800000003
  8.4135862299999999  7.6891648300000002 16.4596256700000012
  8.4350797800000006 10.5117704300000003 18.9665734499999985
  7.8875162899999998 12.1577005699999994 -0.0756437300000000
  8.5259376400000004 14.8001432299999998  2.4123471400000001
  8.7461161300000008 16.6476542300000006  4.6929046400000001
  8.5460465200000009 19.1911349800000011  6.6369617800000000
 10.8443722499999993  0.1641607600000000 10.3858901899999996
 10.4216294299999994  1.7293422500000000 12.6663515300000000
 10.7984832300000004  4.1802908399999996 15.1343226499999997
 10.6768795700000005  6.1700093400000000 16.4872121000000007
 10.1648001499999996  8.4241885599999993 18.7346018000000001
 10.7993876800000006 10.9731544900000006 -0.5417160800000000
 10.3579160199999993 12.4169261100000003  1.5756997200000000
 10.5420092800000003 14.4148078799999997  4.4053717399999996
 10.7773454599999994 16.5498887900000007  6.4231950800000002
 10.3633776100000006 18.6481549499999986  8.8664809600000005
 12.4781543799999994  0.0720400200000000 12.9124973099999991
 12.9351424399999999  1.9116348100000000 15.1680518899999992
 12.7334749800000004  4.0643019999999996 16.7974658300000002
 12.8844760100000002  6.0805389700000001 18.6134891200000006
 12.9169197800000006  8.3021780799999991 -0.2879313300000000
 13.0860302100000006 10.6996928499999999  1.4694112100000001
 12.3868525399999996 12.2216189499999999  3.8006061000000000
 12.4392576300000002 13.9656283999999999  6.6864544199999996
 12.4623205499999994 16.4722293899999990  8.6218855500000000
 12.8492745100000008 18.8011428100000018 10.5740063200000005
 14.9324103800000003  0.3046183700000000 14.1097242400000003
 14.9512295900000005  2.0072539300000001 16.5560891800000007
 15.2369329300000000  4.0129442199999996 18.7607039100000001
 14.6285358399999996  6.0089811800000001 -0.4660390200000000
 14.9088112899999992  8.6164064000000007  1.3502013799999999
 14.6807882700000008 10.1845721200000003  4.0101232099999997
 14.6260563700000006 12.2747059600000004  6.1324168099999996
 14.5359275300000004 13.9178595000000005  8.9596039100000002
 14.7005010299999999 17.0065894799999988 10.3390524700000004
 14.8508124600000002 18.6857611599999984 12.3963360799999993
 17.0380857900000002 -0.1212078900000000 16.8571015399999986
 17.2129748000000014  2.2190428600000001 18.8436371800000018
 17.2627434999999991  5.0078670299999999  0.8939332300000000
 16.5244358799999986  6.4140446700000000  2.0439774599999998
 16.7130506099999998  8.6577067599999999  4.0876819199999996
 17.1606542699999984 10.4586452500000000  6.2971502399999997
 16.6023837299999997 12.2148864400000008  8.4012672100000003
 16.6388076100000006 14.8028781699999996 10.7191760299999999
 16.6224394099999984 16.8681508099999995 12.2164254400000001
 17.0651300299999988 18.7964447499999991 14.2082414999999997
 19.1501283200000003 -0.0841741900000000 19.1336928899999990
 17.8308060799999986  1.9891526500000001 21.3323881799999988
 18.6451080299999994  4.5047012400000002  2.6904815900000001
 18.4441725100000014  6.6977112900000000  4.5055718000000002
 19.2340843200000009  8.9645805200000002  6.1376178399999999
 18.8289015999999982 10.5291872200000007  8.7674368000000005
 18.3298674400000010 12.9095958300000007 11.0693582599999996
 19.0165886999999998 14.6361982499999996 12.9469039099999996
 18.9898240099999995 17.2557861099999990 14.5122338600000003
 19.7221260399999991 19.0873451000000003 16.6338275300000014
  1.6250043000000001  2.1107785799999998  0.2917339600000000
  1.8824866899999999  4.0608026199999996  1.8271051899999999
  2.2151440500000001  5.7967000300000002  4.4764905500000003
  2.1669830100000000  8.7754828400000005  6.1935526500000000
  2.3113929299999998 11.4175364399999992  8.6616552599999999
  2.3329659199999999 12.8819249100000004 10.7459798699999993
  1.8933416100000000 14.9235635999999996 12.8433095200000000
  1.9227320400000001 16.6980878699999984 14.4010064399999997
  2.0589309800000000 19.3041764100000002 17.0039326499999994
  1.5429407500000001 20.7075003899999999 18.6930171399999985
  4.1143776699999997  1.8650206899999999  2.6713817400000002
  4.3717782800000000  4.3877812799999996  3.9830287700000002
  4.2046748400000000  6.3870446699999999  6.9016849300000001
  3.9135672300000000  8.5984279800000003  8.8349518400000004
  4.3415353600000000 10.6795071700000008 11.0258978400000007
  3.5228701800000000 13.0374724200000003 12.9971732000000006
  4.0397213900000004 14.8222059000000002 14.7890842700000000
  3.5567311400000001 17.0837757299999993 16.9003649600000010
  4.0914134899999999 18.8601680899999984 19.1258292800000014
  3.8401698199999998 21.0311239999999984 21.3421020599999984
  6.5606727100000004  2.5064728299999999  4.3232000499999996
  6.4300285600000002  4.6569225699999999  6.0272656500000004
  5.9811465100000003  6.5690032000000000  8.7071333000000006
  6.5657546800000004  8.9281238500000004 10.3090820999999995
  6.3847429900000003 10.6776814499999997 12.2192646400000005
  6.6252229700000003 12.3692578500000003 14.7603349099999992
  6.3955073200000001 15.0476696299999997 16.8471895499999995
  6.5598179099999996 17.1872384400000016 18.6902840899999987
  6.2888903799999998 18.9589727799999999 -0.1057626900000000
  6.7126045699999999 21.2822930100000001  2.0599707700000001
  8.4550967600000000  2.5627281100000001  5.9881931200000000
  8.7493368999999994  4.5814985699999999  8.6292472700000005
  8.7010040199999992  6.4945279500000002 10.3825737799999995
  8.3159894699999999  8.3597562399999994 12.7439444200000001
  8.6266564999999993 10.4831831900000001 14.7695612900000004
  8.1996638999999991 12.0936290300000007 16.5048669900000000
  7.7314922800000003 14.7446517299999993 19.0501472400000011
  8.4822286200000008 17.0654742000000006  0.1812548700000000
  8.2379515500000000 18.9795777600000015  2.1658222199999999
  8.6767377499999991 21.4125514000000017  4.3622478200000003
 10.8125127699999997  2.8423966699999998  7.9726868900000003
 10.4014183399999993  4.5821949499999999 10.8504484800000007
 10.6319800099999995  6.4912854800000002 13.3267518099999993
 10.2646275500000002  8.5763555900000004 14.8322579399999999
 10.9645508800000009 10.6063543199999994 16.8199699699999989
 10.2815980699999994 13.0826287499999996 18.7005569499999993
  9.8892774100000000 14.4470892899999992 -0.0466353600000000
 10.3807606999999997 16.7365220699999995  2.0825843200000000
 10.8730898400000005 18.6113408599999985  4.2802051600000004
 10.1843409900000008 21.4351050600000015  6.6838806300000000
 12.5240199099999998  1.9663103600000000 10.1160212000000005
 12.5680809999999994  3.6212198899999999 12.6567749200000002
 13.1662018599999993  6.3755352500000004 14.8015068900000006
 12.9415651999999994  8.3713722300000004 17.0990649700000006
 12.7196171000000007 10.6845315700000008 19.1163666700000014
 12.6846169300000007 12.8251356300000001 -0.0220822100000000
 11.9542216400000001 14.4285423900000005  1.5027286500000001
 12.4208809200000001 16.0038730700000009  4.3527165999999999
 12.2394712899999991 18.6351298199999995  6.2731329699999998
 12.5034604999999992 20.9799181200000007  8.2831937399999997
 14.7563919800000001  2.3809886300000001 12.4182942300000008
 15.0916948800000004  4.3469886100000004 14.7352296500000008
 15.1285268199999994  6.1382576999999996 17.0884595200000007
 15.4518487800000006  8.8147000900000005 19.1556628800000013
 15.0402202099999993 11.1343573100000004 -0.2709842700000000
 15.0455368899999993 12.8958026100000005  1.9374024500000000
 14.2818844800000004 13.9321638300000004  4.1111452300000000
 14.1773499100000002 16.5435725399999995  6.8909892399999997
 14.2666223599999995 19.1081720200000014  8.1714794200000007
 14.4603087499999994 21.4243005199999992 10.3905122599999995
 16.8021029000000013  2.0233127999999998 15.0711666300000005
 17.3158884999999998  4.0964352999999996 16.9268682900000016
 16.8650315999999982  6.4820510599999999 19.4143750500000003
 16.6315271399999993  8.7643204499999996  0.2333136700000000
 17.3428746099999991 10.4281847600000006  1.9693968300000000
 17.1535589799999997 13.1647226800000006  4.3615317300000003
 16.2116443600000011 14.4531880299999997  6.5394402800000000
 16.4272683000000015 16.6878369599999985  8.6724949799999997
 16.3592844200000016 18.9931274999999999  9.8966027499999996
 17.0963866499999995 21.1096025599999990 12.4684237099999997
 18.7394871599999995  1.6182003300000001 16.5512489599999988
 18.7049774999999983  4.0483973000000004 18.9426560899999998
 18.8123132700000006  6.9076673000000000  0.4501664800000000
 19.4108434099999982  8.3991424099999996  2.4461281800000001
 19.2038671699999988 10.9128180799999992  3.9597960099999998
 18.9535961499999992 12.8459580199999994  6.1305233699999997
 18.4527685000000012 14.1158849199999992  8.4300024100000002
 18.9335002500000016 16.6724780499999987 10.2153703900000004
 18.9262366299999982 18.9323311499999996 11.9963209800000001
 18.7734152200000004 20.7763238100000009 14.0455979099999997
 20.6289645499999992  1.7643821900000001 19.1603058900000001
 19.9745629999999998  3.8240451000000002 21.0938663499999990
 20.9907384300000004  6.0915275900000001  2.3803592400000002
 21.2123663399999991  8.0708929099999995  4.3868393100000000
 20.8720898400000010 11.1324504300000005  6.2873523000000002
 21.0062121499999996 12.4262600100000000  8.7496368600000007
 21.0376908200000017 14.7072155900000006 10.5747822800000009
 20.7579686400000014 16.7976874299999999 12.5405086800000003
 20.9772687900000001 18.6741343200000003 14.8131529600000000
 20.4339828200000007 20.8372933499999995 16.7385811000000011
  4.1945720299999998  4.2310627199999997  0.1242008500000000
  4.0121237900000004  6.1627819400000003  2.0537569100000002
  3.8553756300000002  8.4572946000000009  4.1893706200000000
  3.3967853699999999 10.4368817200000006  6.1837228399999997
  4.7850905700000004 12.9700702499999991  7.9800451099999998
  3.8483064900000001 14.9262973399999996  9.7764334700000006
  4.0322749900000003 16.5122801099999990 12.3356209400000001
  4.4323042399999997 18.9504427600000014 14.3092121199999998
  3.8773589600000000 -0.0576070300000000 16.5183568700000016
  4.0916834399999997  1.8156265500000000 18.6681191599999998
  6.0661105299999996  4.5939087399999998  2.2216330599999998
  6.1863995300000001  6.7740850400000001  4.0860737100000000
  5.8805160799999996  8.8052757300000000  6.5527752300000000
  6.1793670000000001 11.2512041000000007  8.6353989599999998
  6.5820116400000002 13.0264345699999993 10.8911186999999998
  6.4081892099999997 14.8995159000000008 12.4403226700000005
  6.0368529200000003 16.9747856199999987 14.4211651599999993
  5.8640480300000002 18.8463810299999999 17.1036637499999991
  6.0455581799999996  0.2179511400000000 19.1131262600000014
  6.4254990300000001  1.9948441100000001 21.2818530999999993
  8.7952856199999996  4.4317015499999997  3.5689706499999998
  8.1541652399999993  6.5960959299999997  6.3407092900000004
  8.5267317499999997  8.3819025000000007  8.4253861099999998
  8.4230971300000004 10.3385436800000008 10.5729923400000008
  8.7200849900000001 12.3612774900000009 12.9702666900000008
  8.0039512800000008 14.6665479500000000 15.0296515500000005
  8.2756828000000002 17.2059193800000010 16.9745658199999987
  8.4653188999999998 19.2400799099999986 19.0954768100000010
  8.6739335099999995 -0.3755843200000000 -0.0604117400000000
  8.8333379200000000  2.6729788299999999  2.0097876900000000
 10.1793346499999995  4.6712424500000003  5.5406869800000003
 11.0365235500000001  6.4349989100000000  7.9647674899999998
 10.5200263799999991  7.9041192899999997 10.6147068999999998
 10.8101464600000003 10.6559848400000003 12.7151583800000001
 10.3511579000000005 12.3225190700000002 15.0224768799999993
  9.8492161300000003 14.7823749499999995 16.8193076999999995
 10.3343659900000002 16.9362181599999992 18.7150857399999992
 11.0774296900000007 18.4004444199999995  0.0402678200000000
 10.2453309600000004 -0.0589420300000000  2.2231369900000000
 10.9964542200000004  2.0003137099999999  3.6312789300000001
 12.6041503699999993  4.5663739000000003  8.4359580100000002
 12.1170200200000000  5.6795984800000001 10.8031251400000006
 12.4718848399999995  8.1876910899999995 12.8450187200000006
 12.8329102400000004 10.2768659099999997 14.3017086899999999
 12.6682851200000002 12.8763442999999995 16.9803551599999984
 12.6149719099999995 15.1308381700000005 19.0105150800000011
 12.3419480200000002 16.7289726399999985  0.0569382600000000
 12.8583215099999997 19.1300500900000010  2.1827805400000000
 12.3223101600000007 -0.1797439300000000  4.3795035000000002
 12.7947953499999993  2.3437141700000002  6.1222231000000003
 14.6781360799999998  3.9045975300000002 10.2652346800000007
 14.7353500000000004  6.2903101699999997 12.8199047900000007
 14.8572900099999998  8.3535631200000005 15.0736406200000008
 14.3355828400000007 10.5839793600000007 16.6788948599999998
 14.5247856300000002 13.1101871400000007 18.5755149999999993
 15.0552815100000004 14.7638363199999993 -0.1661823000000000
 14.4258373599999992 16.6817283399999994  2.1480913400000001
 14.6182893099999998 18.5853904900000018  4.3620650400000001
 14.2338721300000000  0.1526171900000000  6.4875804800000001
 14.4603536500000001  2.1538118000000002  8.4828038400000008
 16.8395937099999990  4.5169863200000000 12.2505372900000005
 16.6469966599999992  6.3192834400000004 14.8143573699999997
 17.1483853900000014  8.6187396300000003 16.9315141800000006
 17.0980074799999997 10.8399546999999998 19.0130572200000003
 17.1243611000000016 12.7460775999999996  0.0059290400000000
 16.9569016599999998 14.3674116099999996  1.9779023700000000
 16.2089260400000015 15.9596107699999994  4.4460154699999999
 16.1989364999999985 18.8881808599999985  6.3831198100000002
 17.0430829999999993 -0.0791612800000000  7.8627093300000004
 16.9791121800000013  1.9989185500000000 10.1735748499999996
 19.0911824699999997  4.0300379199999998 14.8254554299999999
 19.1643223499999991  6.3405169299999997 17.0713567300000015
 19.3932122199999988  8.6443032399999993 18.8237625199999989
 19.1557314900000009 10.0570423000000009 -0.0475930400000000
 18.9220079199999986 13.0722121599999994  2.2669376600000000
 19.1143303899999992 14.8844715200000000  4.3539332999999996
 18.3004750999999999 16.2145216400000010  7.0039546300000000
 18.9412833899999988 18.5909261000000008  7.9892905799999996
 19.0067845800000015 -0.4855998300000000 10.5226766699999992
 19.0911199300000014  1.8398901000000001 12.4364780300000000
  0.2540809400000000  3.5588075600000000 16.8439754999999991
 -0.2104508800000000  6.0002039299999996 18.9907082100000011
  0.4498246800000000  7.9227347799999999 -0.1274992100000000
 -0.3797284800000000 10.4202525200000000  2.1663402600000001
 -0.3194836900000000 12.7386716900000003  4.2685522699999998
 -0.2940594900000000 14.5192210799999994  6.3352673900000003
 -0.1204418700000000 16.1455085499999988  8.0067939999999993
 -0.2041149400000000 18.6798143100000011  9.5053201000000005
 -0.4713383600000000 -0.6572220300000000 12.4530007699999992
 -0.2419017600000000  1.5935580499999999 14.3775464100000008
  1.8576690000000000  3.4645952400000000 19.4772214199999993
  1.8533240400000000  6.0130699700000001 21.8021432900000001
  2.0223221200000001  8.0810946999999995  2.3382458399999999
  2.0218135699999999 11.0146126599999992  3.8801649199999999
  2.3447382800000001 13.1214719500000001  6.4912750600000004
  2.1719981300000000 14.6839084999999994  8.1121702700000000
  2.1577651000000002 17.0642905599999999 10.1978244100000008
  1.8039145800000000 18.3454677199999985 12.0761892999999993
  1.7982657000000000 -0.4104198600000000 14.1212758899999997
  1.7009426900000000  2.1938106600000000 16.5199810999999990
  5.9179265399999998  6.3383464700000003 -0.2632194900000000
  5.8171056999999999  8.4609964099999999  1.9410943400000000
  5.8922469099999999 10.2681902899999997  3.5390226100000000
  6.4366663600000003 12.3564343999999995  5.8065384800000004
  6.8877077699999996 14.4713346099999995  8.6113303299999995
  5.7389815999999998 16.8938594900000005 10.3001956000000003
  6.4072612500000004 19.0490871199999994 12.1156156900000003
  5.8766816999999998  0.0177128500000000 14.1963485200000008
  6.4281177999999999  2.4617509300000000 16.9228881700000002
  6.7616423699999997  4.5024403399999997 19.0450710000000001
  7.8426925399999998  6.8724159499999997  1.9824863200000000
  8.3255358699999995  8.3354926299999992  4.3560964499999999
  8.8126860899999997 10.8224616200000003  6.1481412799999999
  8.6850343500000005 12.0640850299999993  8.3270509700000002
  8.4250364900000001 15.1139133300000008 10.8433301199999992
  8.2976000299999999 17.4276072500000012 12.4309774599999994
  8.4971002900000006 19.1135516299999999 15.2743514999999999
  8.0460183900000004  0.6413247100000000 16.5769088800000013
  8.0823506900000002  2.1156267299999998 18.8730437000000002
  8.7838808799999999  4.4279185300000004 21.4724780499999994
 10.8674493299999995  7.0787574099999997  4.1261695400000002
 10.6230695900000001  8.6243421100000006  6.2521663099999998
 10.5350381500000001 10.6231314799999996  8.5573146900000001
 10.5570479699999993 12.6891140799999995 10.5033473599999994
  9.8537641100000002 14.6197282699999995 12.9705213700000002
 10.0008657500000009 16.3268440800000008 14.4602304600000000
 11.0121588599999995 19.4783443900000002 17.0424997900000008
 10.3458766499999992 -0.0217083200000000 19.2670449599999998
 10.9405661999999992  2.1674135799999998 -0.0005489100000000
 11.1753482399999999  4.7520501399999997  1.7683298800000000
 12.6719549300000001  6.5916490300000001  6.2565652600000004
 12.3213286100000001  8.2995409400000000  9.0199652399999994
 12.6749081799999992 10.2944323099999995 10.7372044700000000
 12.7244338199999998 13.2655646399999991 12.5457574300000001
 12.4351344600000004 14.4667274199999998 14.9110346699999994
 12.2097680200000003 16.8907476999999986 16.3912676499999996
 12.5711201799999994 18.5406463700000010 18.8226324699999985
 12.3989286100000005 -0.0548752400000000  0.0949267100000000
 12.7886191700000005  2.0649959500000001  1.8537471299999999
 12.7116963100000007  4.7722840399999997  3.8881660299999998
 14.7120695999999995  6.6061055299999998  9.1454569600000006
 14.7227619700000005  8.4810734399999994 11.1510324300000008
 14.7331608799999998 10.5290245099999993 13.0794868900000001
 14.3460700899999996 12.5384896999999995 14.9896778200000007
 14.8204709799999996 15.4898678499999995 16.3868157399999994
 14.5025729499999994 16.8583317199999989 18.4566893500000013
 14.9986113200000002 18.6153696900000014 -0.1771232400000000
 14.4634520799999997 -0.1074341000000000  2.2915541600000000
 14.3686194000000000  2.5329096999999998  4.2921422199999997
 14.4939924399999995  4.8539025699999998  6.4861821400000004
 16.8344948099999989  6.5375128299999998 10.3588370500000000
 16.7643003899999989  8.2082911099999993 12.6831120100000003
 16.6032143499999982 10.6619912200000009 14.9910339399999994
 16.7441849100000013 12.8518253799999993 16.7371264400000008
 16.6415620500000010 14.9722770999999995 18.9953548900000015
 16.6833908199999996 16.7688798599999984 -0.3198217000000000
 16.6591185999999993 18.8902691800000007  2.2071063799999999
 16.3322534099999999  0.1936969200000000  4.4609873899999997
 16.3739036599999999  2.5082571400000000  6.2651395499999998
 16.5967391999999982  4.1570880900000002  8.0900812799999997
 19.6392623999999998  6.1857577700000004 12.7553780700000008
 19.4845224600000009  8.0980551300000005 14.8471734200000007
 19.1730592699999995 10.7027042600000009 16.9719228899999983
 18.9723559600000016 13.1571623100000004 18.7004803200000005
 18.6387758599999991 14.6499836299999995 -0.4036626600000000
 18.9339599199999995 16.3958738299999993  2.0080980500000001
 18.2307391500000016 18.7294629499999985  4.4613595000000004
 18.6931130100000011 -0.2166190300000000  5.8432465100000002
 18.9497275800000011  2.0500439099999999  7.7211894399999998
 18.8668567899999999  4.0288058099999997 10.3429126900000004
  0.7078989500000000  5.6461905300000002 15.2677923999999994
  0.0591874400000000  8.1430506999999999 17.1984519200000001
 -0.1760817300000000 10.5301270700000007 19.2271938099999993
 -0.2709097800000000 12.1018897400000007  0.0935293900000000
 -0.0660975700000000 14.5390903999999992  1.2863201799999999
 -0.7512919100000000 17.0973664200000002  4.0725293499999999
 -0.2156976700000000 18.1597781000000005  6.0777364399999998
 -0.2814531900000000 -0.2826711500000000  8.2554702800000008
 -0.1603830800000000  2.0033143199999999 10.8345801700000006
  0.4884159100000000  4.2493198300000001 12.4815922599999993
  1.8114290099999999  5.6293420000000003 17.0578016400000010
  1.8668712999999999  8.3376966400000008 19.0698849400000014
  2.3057029000000000 10.5708845999999994 -0.0657248000000000
  1.7367123200000001 12.8967447699999997  2.1721670899999999
  1.6653176199999999 15.1664208499999997  4.1200768999999999
  1.7753560600000000 16.9812555100000004  6.0983517999999997
  2.0443114400000000 18.8136296399999985  8.1715942699999999
  1.9149188500000001 -0.3412209000000000 10.6307682999999997
  1.8132673800000001  1.3506301599999999 12.6469726700000002
  2.4664628899999999  4.0257933399999999 14.3501608800000007
  3.5367515200000001  6.0675232599999998 19.3179255999999988
  3.7347918800000000  8.5558955300000008 21.1216944799999986
  4.2210006699999996 10.6330394399999992  1.8362355299999999
  4.1349057599999997 12.5215595700000009  4.1763386699999998
  4.3278509200000004 14.5855245199999999  6.1708305499999998
  4.5210547900000000 16.7732423200000014  7.9445273900000002
  4.4058045300000002 18.9999239700000011 10.2306063900000002
  4.0293572900000001 -0.6542152800000000 11.9007533900000002
  4.1767824500000001  1.6268464499999999 14.9192204000000004
  4.1754671200000004  4.4868319200000002 17.1470094300000007
  7.6333459200000000  8.3892062299999992 -0.5324654300000000
  8.4703982100000008  9.8310178700000002  1.8068966000000000
  8.5093810699999999 12.1258204999999997  4.0597450500000001
  8.4239286000000000 14.1345944899999996  5.8650066499999998
  8.0880770099999992 16.2015946600000014  8.3910731900000002
  8.2252103400000003 18.8274661200000004 10.1801795199999994
  8.7265309299999991 -0.3328987400000000 12.5145028499999995
  8.7280016699999994  2.3716556500000001 14.8933720699999999
  8.3562639200000000  4.3705404400000001 17.0205991700000006
  8.6790053100000009  6.0774766600000003 18.6640926299999990
 10.3576559699999997  8.7003610699999996  0.9599141100000000
 10.3584222900000000 10.4321589600000006  3.1513957499999998
 11.0401716800000003 12.1905564300000009  5.9884630000000003
 10.4287554799999995 14.2614286700000008  8.5169406900000002
 10.5345267499999995 16.6944392099999988 10.7847822699999991
 10.8974952199999997 18.6956279700000003 12.9957314400000001
 10.9863125299999993 -0.0260723900000000 14.4251083599999994
 10.9282924999999995  1.4784056699999999 17.3257411300000008
 10.2667288699999997  4.4964970299999996 18.4233290700000012
 10.5297673500000002  6.7199673100000004 20.6160952699999989
 12.6641365700000001  8.6759469500000002  3.6085636000000001
 12.4950171700000006 10.3091689700000000  6.1668758199999996
 12.3752372000000008 11.8397074900000003  8.3831994800000000
 12.1551709799999994 14.2925465000000003 10.5735588699999994
 12.6481507700000009 16.4339473600000012 12.6313756200000000
 12.7196203499999996 18.9835088499999998 14.7416698000000004
 13.1171866399999999 -0.2176017800000000 17.1319826000000006
 13.0056071899999992  1.9922390100000000 18.6820466500000002
 12.6319681100000007  4.1667482099999997 -0.1226889200000000
 12.7779917100000002  6.9621226099999998  2.1350593700000000
 14.4966280500000000  8.3161657699999996  6.1968361800000000
 14.6771996799999993 10.4268907500000001  8.9135213600000007
 14.3241183700000008 12.0233420700000000 10.7674437300000001
 15.1518391799999996 14.6505452900000002 12.6435293899999994
 14.7437412200000004 16.8982828299999994 14.7368394699999996
 14.6415413999999995 19.1818991099999998 16.6165493399999988
 14.5998150399999993 -0.1683435100000000 19.1637494000000004
 14.8071975699999996  2.2145439400000000  0.1550234400000000
 14.5756134999999993  4.1302564899999998  1.9831293100000000
 14.3919738800000001  7.0739863400000003  4.0912583600000003
 17.0894585499999998  8.7217854799999994  8.5254113999999994
 16.5835649200000006 10.4566430799999992 11.1231732000000001
 16.5195366499999992 12.5171659200000001 13.0023571499999999
 17.4775843100000010 14.7349036499999997 14.8160063500000003
 17.3624193499999997 16.9322031099999997 17.0711744799999998
 16.8457124200000017 19.2849511999999983 18.8412945200000017
 16.6877383899999998 -0.0235678300000000  0.3360333300000000
 16.3653498000000006  1.9655692899999999  2.8948253799999999
 16.4646080499999989  4.5517989999999999  4.3915028800000000
 16.7421435800000005  6.5160670600000001  6.0805781100000003
 18.8937649400000005  8.5571613400000004 10.8062064800000002
 18.3256480699999997 10.6349497700000004 12.4989957700000005
 19.8498571900000016 12.3087865099999991 15.0298584099999992
 19.3913113999999993 14.9025054600000004 16.7187371899999988
 19.2611576900000010 17.1597764999999995 18.9010522799999983
 18.6352821900000016 18.5641814399999987  0.0295576900000000
 18.4717756900000012  0.0410507100000000  2.1235180499999999
 19.0235742399999985  2.0428713799999998  4.2204568000000000
 18.5906320899999997  3.8072083999999999  6.1266872200000000
 19.1183935399999996  6.0914681699999997  8.4128078899999998
 -0.1192592300000000  8.6231102699999997 12.5967126300000007
  0.0963407500000000 10.4945380499999992 14.5786765400000000
  0.5705467200000000 11.9730329900000001 16.9582685700000013
  0.4092704100000000 14.8654174099999992 18.9322686199999985
  0.1926793200000000 17.1752755099999987  0.4300361500000000
 -0.2270324600000000 18.9284904199999993  2.3092258900000000
 -0.0621289800000000 -0.0782692900000000  4.6185062099999996
  0.2988922600000000  1.9439652700000001  6.0812356400000001
 -0.1410391300000000  3.6319998000000000  8.2987920000000006
  0.0846150300000000  6.3311631500000001 10.0949443100000007
  2.0593464699999999  8.5137384699999998 14.5434979900000005
  1.9988291000000000 10.4835858500000008 16.4634959000000016
  2.2751524299999999 12.6011359699999996 19.0576844500000000
  2.0936266500000000 14.4070213000000003 -0.2263668800000000
  2.3533460100000001 16.5762393199999991  2.3044885399999999
  2.0142436799999999 18.3224108200000018  3.8272783200000000
  2.6190460899999999 -0.2121917900000000  5.9134833999999996
  2.1277493700000001  1.6233710100000001  8.4885949899999993
  2.4990578999999999  3.7728141100000001 10.4557686699999994
  2.4419605899999999  6.6260358300000002 12.3284735699999999
  3.5909264300000001  7.4972096199999996 16.7343472300000009
  3.8653552699999998 10.3488351999999999 18.8426064300000000
  4.7678288000000002 12.8686251800000004 -0.3206163900000000
  4.5848089200000004 14.4668287400000004  2.3011050100000001
  4.6289727599999999 16.7816894199999993  4.2722347699999998
  4.1746216699999996 18.5198250999999985  6.1542962000000001
  4.1042631600000004  0.1224848700000000  8.4496374200000002