Li                                      
   1.00000000000000     
    21.2169999999999987    0.0000000000000006    0.0000000000000000
     0.0000000000000006   21.2169999999999987    0.0000000000000000
    -0.0000000000000006   -0.0000000000000006   21.2169999999999987
   Li
   500
Direct
  0.9748090898807575  0.9922693495781658  0.0153536942074766
  0.9896585511618028  0.0974777315360313  0.1266706273271438
  0.0003260451524696  0.1951613427911596  0.1937985403214384
  0.0090100706980252  0.3114713017863053  0.2853697346467428
  0.0082944026016847  0.4074376867606162  0.3830542333977505
  0.9825095918367381  0.4899506777584008  0.5099990578309814
  0.9806616920394049  0.5814294839044152  0.5991001583635764
  0.9816677753688055  0.7119449634726891  0.6978490950652798
  0.0024275599754944  0.8124999528679808  0.8050258702926882
  0.9937511396521685  0.9110570137154141  0.9113192911344683
  0.0978242390535868  0.9986378625630365  0.0818853560823882
  0.1121065805721813  0.1158589192628554  0.1937403563180453
  0.1029815511146737  0.2009314281001053  0.2968691836734720
  0.0973103544327643  0.3042131630296439  0.3927097657538781
  0.0973068977706575  0.4104442904274848  0.4911792831220225
  0.1117156501861700  0.5207421035019095  0.5883108059574838
  0.0800046547579782  0.6066089013526863  0.7142810090964815
  0.0903044469057832  0.6877073700334648  0.8061860314841880
  0.1023612103501890  0.7995325262760957  0.9187200994485565
  0.0934091459678541  0.9100550336993933  0.0104518070415196
  0.2073673959560765  0.0055387227223420  0.1894281156619684
  0.2098207131074119  0.1024518023283250  0.3072201041617575
  0.2023285266531545  0.2112678611490750  0.3859633525003545
  0.1967324617052384  0.3072335810906353  0.4993159598435213
  0.1930317137201314  0.4140824009049382  0.5978261059527767
  0.2010958184474703  0.5105715039826535  0.7010958844322914
  0.2020916312390995  0.6156132181741043  0.8045296512230777
  0.2022723038129826  0.7071102285902811  0.9108635994721226
  0.1987746778526684  0.8077776749776149  0.0144289748786335
  0.2090055606353403  0.8981624918697264  0.1015922557383249
  0.2952091285290095  0.0028965183579217  0.2880884130649974
  0.2956295706273266  0.0954045355139712  0.4033667733421282
  0.3018348956025818  0.2092953485412608  0.4920933996323669
  0.3127011132582354  0.2989987293208287  0.5638253504265478
  0.2870188919262873  0.3994211957392650  0.6910150148465846
  0.2849343950605672  0.4940926408068975  0.7900568694914440
  0.3146081335721362  0.6021132841589321  0.9042855917424717
  0.3044025993307287  0.7075494358297618  0.9970284286185631
  0.3038509252014876  0.7934582688410217  0.1155438120375152
  0.2887103530188071  0.9178265150586782  0.2051783371824456
  0.3997572479615386  0.0006065565348550  0.3964351595418734
  0.3940231691568101  0.1029601385681289  0.5126434444077859
  0.4047481180185670  0.1888532554083966  0.5911038747230961
  0.3878660008483763  0.3020160286562685  0.6991349248244347
  0.3813965537069350  0.3988794198048708  0.8027404100485427
  0.3811123269076688  0.4813730876184223  0.9072396931705740
  0.4184069156808192  0.6035289616816684  0.0158327699486236
  0.3909521068011514  0.7079231611443646  0.0906468610076843
  0.4056072870811107  0.7824789696941110  0.2056221958806645
  0.3800233105528577  0.9032543257765013  0.2888335537540669
  0.4975792359900097  0.0012987420464725  0.4868332323137139
  0.4970807993590043  0.0960283074892772  0.6072306494791917
  0.4887528967337502  0.1879232021492214  0.7184617853607946
  0.4994273879436335  0.3027971145779347  0.7877003761134915
  0.4905641037846991  0.3890786982136945  0.9055352198708562
  0.4989022340575957  0.4889751293773870  0.9791451081679767
  0.5078107131074105  0.5773404133477840  0.0994273865296691
  0.4943405424895104  0.6769940679643653  0.2001327397841379
  0.4974890385068562  0.7978830371871624  0.2872785261818365
  0.4711680025451273  0.8945447428948512  0.3844068251873480
  0.6041440208323507  0.0008129990102290  0.6061856157798005
  0.5956194867323390  0.1064028797662218  0.7023224428524273
  0.6109287712683198  0.1899982867511909  0.7744528844794303
  0.5995423730970444  0.2790156935476276  0.8999760272423032
  0.5987060168732654  0.3872637493519377  0.9826112603101294
  0.5917708785407925  0.4773395725126051  0.0987812277890399
  0.6024237493519351  0.5737054654286666  0.1967524263562268
  0.6132325884903622  0.6777064693406203  0.2811439831267393
  0.5827833534429914  0.7936079370316236  0.3795150035348982
  0.5788087510015529  0.9008008742989091  0.4718113932224171
  0.6908453838902773  0.0146629330254058  0.6864443691379520
  0.7223458877315352  0.1028840467549585  0.7876714903143736
  0.7191453532544685  0.2072490276664922  0.8916919456096508
  0.7135395319790732  0.2861602408446089  0.0054256006975564
  0.7014582198237278  0.4032147287552448  0.0956383734741024
  0.7057417943158768  0.4928902493283687  0.2003515775085987
  0.7188261153791800  0.5946145326860517  0.3134321525192050
  0.7104917891313534  0.6942472880237531  0.3984689574397891
  0.6807295517745189  0.7976623862940073  0.4870798383371806
  0.6973614017061820  0.9135713517462420  0.5858081609087051
  0.8187076570674492  0.9996873591930964  0.8095122298157165
  0.7958567719281717  0.0927337861149056  0.9127053589103085
  0.7985321256539564  0.2093461238629430  0.0078272724701876
  0.8018307248904151  0.3071149281236742  0.1179769500871970
  0.8035366814347000  0.3918190578309861  0.2047360333694712
  0.8132732827449658  0.4916771730216354  0.3079284111797165
  0.8152858123203117  0.6032651373898261  0.4055729250129616
  0.7908037182448027  0.6983705283499049  0.5169044714144349
  0.7772889923174802  0.8107792067681601  0.5831347754159424
  0.7975064075976803  0.9326795480039607  0.6810929118159947
  0.8789571456850638  0.9806140825752934  0.9024448428147238
  0.8930562770419925  0.0937688184003420  0.0031572309940131
  0.8954191351274901  0.2069450874298937  0.1067770476504677
  0.9308121859829370  0.3001771470990278  0.1887207602394341
  0.9104369915633725  0.3913312621954077  0.3033976825187352
  0.9029176047509040  0.4933028199085641  0.3977896974124491
  0.8821803256822349  0.6095005985766164  0.5126737672621005
  0.8906358476693228  0.7084915831644452  0.6113592421171674
  0.8876144002450843  0.8018634293255431  0.6960036239807721
  0.9039099905735952  0.8969611085450353  0.7992274379035678
  0.0886990917660384  0.0866558443700782  0.0082020441155706
  0.0796230183343525  0.1986547066031932  0.0824886963284186
  0.1135090154121698  0.2775060178159023  0.1873331088278292
  0.1051664061837201  0.4114962181269703  0.2814682924070340
  0.1109675769430183  0.5103783960974724  0.4021319324126864
  0.0946277122119028  0.6084993976528281  0.4999933949191657
  0.0993692246783269  0.7087877918650136  0.5867326869962781
  0.0923227883301152  0.8084747117877171  0.7121785049724281
  0.1111697073101752  0.9147080793703140  0.8216613856812955
  0.0995459098835809  0.9974029127586377  0.9114701885280638
  0.2049892708676992  0.1164575005891493  0.1043980779563540
  0.1934672305226925  0.1999274162228417  0.1981815793938821
  0.1956498482349076  0.3128555780741848  0.2899672847245114
  0.1962704995993789  0.4052686892586124  0.4053687363906278
  0.2122537488806131  0.5126841857944129  0.4870217085356074
  0.2109032818023309  0.6046491238158112  0.6054004152330705
  0.1931459843521708  0.7118095621435643  0.6966754951218377
  0.1808496285997094  0.8150595451760410  0.8233019361832490
  0.1979311052457930  0.9040467445916036  0.9190810359617316
  0.2002401027477987  0.9969026766272293  0.0051632648347990
  0.3083455978696321  0.0993150676344428  0.2036857896969408
  0.2973854065136479  0.2067049229391529  0.2948480624027923
  0.3004311726445792  0.3221709586652182  0.3974913069708279
  0.2946113512749235  0.4265515308479024  0.5168470000471288
  0.2987794603384089  0.5235804124051455  0.6229407371447451
  0.3098630202196375  0.6274213724843278  0.6836510171089216
  0.3183344030730098  0.7061295249092723  0.7900609035207609
  0.2954455672338199  0.8078058283451952  0.8998008653438276
  0.3134565376820504  0.8928471678371110  0.0050227214026464
  0.3059326794551538  0.0101894499693671  0.1062413399632405
  0.3974409209596104  0.1191521657161729  0.2838854395060579
  0.4066003289814759  0.1966865801008595  0.4019173082905212
  0.4119475029457504  0.3171498538907471  0.5038340811613296
  0.3980361370599041  0.4194178333411855  0.6205640359145974
  0.4212107814488348  0.5048336588584590  0.7092907234764567
  0.3851688282980632  0.6137264325776499  0.8088655050195612
  0.4066821963519800  0.6968175406513666  0.9216798463496261
  0.4066860098034581  0.7990325465428683  0.0066836117264444
  0.3858994386576811  0.9087201795729811  0.0923792081821162
  0.4030630136211499  0.9995307498703880  0.2062585158127916
  0.4945076622519693  0.1052258462553581  0.3748845736909061
  0.4934919781307414  0.2067206876561229  0.4923277753688069
  0.4857126978366395  0.2991952556911883  0.6168790559457022
  0.4929297181505419  0.3986779789791228  0.7191420031107114
  0.4909601772163796  0.4947455903285132  0.7983524880991624
  0.4919034189564968  0.5911250737616029  0.8799349427346002
  0.5020121793844581  0.6980518961210365  0.9920799490974233
  0.4926883838431451  0.8011539086581507  0.0834156445303265
  0.4895304161757110  0.8754200537305010  0.1972259697412468
  0.4844112037517050  0.9844913974642964  0.2860464382334911
  0.5956130701795743  0.1151334835273587  0.4909397403025864
  0.5900401437526526  0.2235012678512547  0.6074142465947148
  0.5973460211151433  0.3031967870104140  0.6745351618984756
  0.6185768237733882  0.3974789786491968  0.8060269925060126
  0.6037045246736099  0.4890386944431384  0.8788699118631271
  0.6030574280058474  0.5925056808219793  0.9883209157750841
  0.5679248498845269  0.6779064165527657  0.0890080086722946
  0.5909410274779674  0.7801936494320572  0.1881520064099576
  0.6051669934486483  0.8858692859499442  0.2849442103030597
  0.5710201602488567  0.0117174972899079  0.3719595004006209
  0.6703078432389091  0.1102156388744859  0.6004204849884545
  0.6968849219965136  0.2042311863128603  0.7070911891407832
  0.6887226257246581  0.2960736560305435  0.7973248338596406
  0.6966873474100979  0.3940595442334001  0.8962092916057856
  0.6844885789696917  0.4943965706744606  0.9818153876608378
  0.7040636192675649  0.5653860291275876  0.0848331097704644
  0.6933185898100547  0.6721897544421935  0.1639693792713359
  0.7024384097657546  0.7808338115661968  0.2892884738652981
  0.6846338473865288  0.8988433129094560  0.3864001263138022
  0.6798832459819977  0.9945865447518472  0.4684861380025467
  0.8188009449969371  0.0899636338784902  0.6767762209548920
  0.8167097789508446  0.2034048696799715  0.7978473756893081
  0.8175785379648417  0.3079695117123080  0.8999701310270041
  0.8001916189847762  0.3897334689164325  0.9913827888014310
  0.8080173290286083  0.4877017773483558  0.1115364231512501
  0.8008641155677054  0.5925039397652796  0.2256702295329234
  0.8096486392986719  0.6845834915398044  0.2970285756704527
  0.8042995748692050  0.7949522213319540  0.4261336517886605
  0.7850676429278423  0.9041519950982675  0.4803635363152168
  0.7848346095112433  0.0208197030682911  0.5468548564830087
  0.8936707970024003  0.1066219701183044  0.8141419154451626
  0.8946725418296637  0.1992808856105981  0.9161910095677968
  0.8876544963943971  0.3095522265164732  0.0163519215723227
  0.9043150813027268  0.4071261064240943  0.1141003737568909
  0.8994901677899776  0.4870804312579509  0.2073583390677314
  0.9031631997926155  0.5980271273035740  0.3189993594758889
  0.9051934142432927  0.7297814394117950  0.4172984663241763
  0.9045467516614067  0.8162532304284298  0.5206714361125506
  0.8813505533298738  0.9126547744733031  0.6151541523306747
  0.9099329259556015  0.0018440165904678  0.6864022901446987
  0.9904422203893120  0.0937496224725436  0.9010993071593560
  0.9872924442663873  0.1914935264174957  0.0082339081868312
  0.0129778144883801  0.3252541773106472  0.0825613885092125
  0.0015744511476612  0.4051463057925275  0.2047103539614454
  0.9981137140029190  0.4953080812555939  0.3030092840646645
  0.9873264349342534  0.5966395861808920  0.4120897124946978
  0.9959264424753727  0.7137514290427518  0.5116579139369364
  0.9872468822170930  0.8250061092520156  0.6122815402743100
  0.9957499396710219  0.9022159692699248  0.7121969401894717
  0.9789185888674155  0.0124599835037955  0.8010675637460523
  0.1998865937691505  0.1663282108686417  0.9913592524862125
  0.2063375524343698  0.2807355342414084  0.0770317528397015
  0.1944206942546103  0.4062540599519266  0.1953475147287520
  0.1996072154404516  0.5225772658717034  0.3028327378988536
  0.2166721935240616  0.6269643319036646  0.3831884993165886
  0.2083931851816914  0.7014588683602767  0.5083868841023715
  0.1876813097987480  0.7980636395343339  0.6028147537352098
  0.2075334363953445  0.9019551232502252  0.7097029240703208
  0.2107816401941847  0.9915304722628093  0.7843187967196101
  0.1961643267191420  0.1038989833623987  0.9041544700004707
  0.3063370311542641  0.1979947438374907  0.0754274718386228
  0.3056340599519274  0.2886910006127152  0.1762724918697245
  0.3048918631286242  0.3940417806475907  0.2910217113635269
  0.3122989998586050  0.4977341136824265  0.3789125488994642
  0.3196537540651363  0.6183506103596201  0.5119356525427747
  0.3082473346844523  0.7188835004948828  0.5949926172408908
  0.2993201272564434  0.8064340213036729  0.7269876900598575
  0.3080396799736036  0.9216975109581966  0.8088244591601068
  0.2963623132393849  0.9869116698873555  0.9066379045105322
  0.3116064778243839  0.0903956765801013  0.9833722137908296
  0.4194102860913418  0.2072036635716614  0.1584162421643001
  0.4012856256775237  0.2926283027760732  0.2713207753216764
  0.4070863670641458  0.3924502497996869  0.3952728689258578
  0.3985193641890916  0.5038728034123565  0.5096833553282778
  0.4025374624122193  0.6250545543667840  0.6144381590234218
  0.4149728430032553  0.7250318734976702  0.7164711655747737
  0.4010091384267298  0.8025780223405761  0.8104274878635067
  0.3979340641938052  0.9039420525993336  0.9310397798934815
  0.3937571829193587  0.9979425578545502  0.9963990611302265
  0.4193159386341136  0.1127352792572012  0.0875904265447502
  0.5049478611490770  0.2013486746476900  0.2732803120139522
  0.4983179742659161  0.3075124108026586  0.3818450139039484
  0.4809624419097887  0.3916416976952419  0.5187348630814910
  0.4951596945845296  0.5103614351699122  0.6178659207239505
  0.5050389894895631  0.6161620808785386  0.7213134986096037
  0.4955769401894727  0.6977675217985606  0.8290946434462896
  0.4983798468209457  0.7935972357072174  0.8968402163359599
  0.5138975378234463  0.8937168275439475  0.0007788829712041
  0.5061851350332276  0.9924206353395846  0.1025390851675567
  0.4901649945798212  0.1012409794033076  0.1780072126125276
  0.5754903138992304  0.1968118475750558  0.3939737385115691
  0.5601015732667207  0.3141764061837193  0.5046953150775337
  0.6029352128010572  0.4073797219211031  0.5908416147428923
  0.6086556921336665  0.4927971786774776  0.7197148484705664
  0.5999908347080165  0.5949067139557869  0.8027088697742357
  0.6175542701607171  0.7196804906442935  0.9046427671207056
  0.6168766559834111  0.7943280067870120  0.9924172804826341
  0.5896106009332129  0.8817296667766428  0.1080924112739794
  0.6038410501013374  0.9875213281802360  0.1965400136682831
  0.6032009143611248  0.0942353834189547  0.2810179049818515
  0.6793567987934210  0.2266940971862184  0.5117637191874422
  0.7081557317245597  0.3025177131545433  0.5866312108215084
  0.7166056949615864  0.4035786129047452  0.6966115167083018
  0.7148494513833228  0.4977248932459801  0.8069859645567234
  0.7035433237498196  0.6173658033652245  0.8862018357920505
  0.6898209515954221  0.6977209101192443  0.0015495743978917
  0.6980662426356190  0.7838525729367944  0.1043225856624375
  0.6916573012207223  0.8852039506056428  0.1998730706508951
  0.7071755917424696  0.9920010962907071  0.3032049790262548
  0.6801166559834115  0.0959925333458997  0.3948421591176867
  0.7944934576047515  0.1959730748927768  0.5952236810105092
  0.7903659560729608  0.2937868313145131  0.6984514403544324
  0.8127914050054201  0.3803994424282422  0.8011160380826681
  0.8020944883819610  0.4800050190884662  0.8858618174105644
  0.7953335113352509  0.5737232959419316  0.9967561592119552
  0.8169553386435382  0.6722364712259008  0.0904668972993363
  0.7938782264222084  0.7863241391337112  0.1992310543432154
  0.8086048484705657  0.8900238850921411  0.3107724164584980
  0.8094627148041695  0.9948069340623107  0.3876793000895518
  0.8053548423434052  0.1249758618089274  0.4807549950511358
  0.8985749837394508  0.2042153278031762  0.7035858787764511
  0.9125531630296493  0.2985153018805704  0.7970848885327797
  0.9229369326483479  0.4121936777112722  0.9038224060894535
  0.9033552839703987  0.5081001192440056  0.9878125842484806
  0.8932057453928479  0.5933458660508109  0.0976823349201084
  0.9041273846443900  0.7139550685770857  0.2084813734269702
  0.9121477866804923  0.7997976245463576  0.3153322359428756
  0.9076233303483079  0.9029379789791179  0.3931184088231134
  0.9070098571899905  0.0039027265871709  0.4997224791440829
  0.9069560390253102  0.0993280063156874  0.5923503483056010
  0.0037043163500954  0.1887910524579368  0.8080177046707817
  0.0000347216854379  0.2731730032521114  0.9124396168167053
  0.0061346354338525  0.4055280562756280  0.9898803511335217
  0.0091162275533776  0.5082959475891968  0.0780476320874754
  0.9878978229721440  0.5927041598718006  0.1979778347551502
  0.0001819965122323  0.6905365702031361  0.2988682471602928
  0.0113075825988602  0.7966618937644370  0.4238152047886103
  0.0008997530282286  0.9075395225526677  0.5163918970636772
  0.0085089885469216  0.9859044888532793  0.6117933006551368
  0.0028387783381234  0.1110773879436309  0.7082086100768237
  0.1100174553424154  0.1913368266013080  0.9146600108403646
  0.0831024466229877  0.2888480430786657  0.9759238860347850
  0.0904674105670011  0.3752837978979144  0.1003077371918764
  0.0905961601545897  0.5118089159636128  0.1887804251307941
  0.0848052175142584  0.6045682127539251  0.2923168652495605
  0.0830270207852166  0.6934800645708634  0.4038905137389861
  0.1056402851487022  0.7997320252627631  0.5068192769948610
  0.0926933124381364  0.8935730866757794  0.6042763420841766
  0.0782928472451303  0.9906751505867959  0.7006622298157126
  0.1056730579252516  0.0689827708912674  0.7959267469482043
  0.3192775373521215  0.2961834378093045  0.0058639194985162
  0.3109954329075748  0.3992357119291157  0.0899562760993575
  0.2838342164302219  0.4833945359852976  0.1861294650516072
  0.2999416727152777  0.6083500881368735  0.2677124598199541
  0.3064674492152548  0.7083015398029886  0.3979712329735605
  0.2969984856483023  0.7989841773106434  0.4946196988264120
  0.3059027873874740  0.8851105467313971  0.6108547127303581
  0.3012673389263298  0.0122881670358694  0.6869421826836941
  0.2935807729650719  0.1040469071970591  0.8321765145873599
  0.2879978262713863  0.1966620045246756  0.9217398421077405
  0.4012234203704566  0.2960146297780071  0.0863600556157778
  0.4045001286704064  0.4079072856671502  0.1866560720177191
  0.3747387241363072  0.5054669335909878  0.2874018706697470
  0.3833128411179700  0.6097617255031338  0.4018545543667784
  0.3987536923221953  0.7009199490974254  0.4969513951076934
  0.4044372253381709  0.8191643993024442  0.6214071343733778
  0.4003882259508913  0.9082506419380678  0.7251420563698900
  0.3913621119856714  0.0197243328463017  0.8145806452373066
  0.3963085751991358  0.0881015280199833  0.9072246505160990
  0.4168151892350451  0.1978135066220474  0.9994429005043131
  0.4930036475467787  0.3032851081679766  0.1775212532403287
  0.4942274393175268  0.4023495159541852  0.3009434547768279
  0.4951733435452681  0.4822621218833945  0.4037546637130589
  0.5030625102512118  0.5987283598058184  0.5082385186407095
  0.5143764415327325  0.6927677041994613  0.5888939916105045
  0.5021188122731743  0.8079601013338333  0.7005329985389039
  0.4899804604798064  0.9135331521892809  0.8085530961021803
  0.5225391502097381  0.9838797129660151  0.8979104076919455
  0.5249090710279489  0.0970258090210692  0.9989387608992786
  0.5261670749870362  0.1965810425602115  0.0822800886081936
  0.5816016279398610  0.3003974487439294  0.2982945373992578
  0.5953063147476101  0.4172331003440632  0.4158232497525560
  0.6023428769383017  0.4926182188810841  0.5153899769053112
  0.6038072719988676  0.6040458877315373  0.6085185667153681
  0.5877072309940132  0.7295799769053133  0.7148305307065073
  0.6059907173492931  0.8123033237498234  0.8052286543809188
  0.6058319517368176  0.9003549087995495  0.8960225899043195
  0.6367568261299894  0.0060209779893512  0.0316402719517370
  0.6162334236696978  0.0912102870339808  0.1305543856341629
  0.6055326021586467  0.2044785959372177  0.1900153179054556
  0.6938355210444485  0.3133859744544480  0.4112706277984657
  0.6972736348211370  0.3936150002356626  0.5039487608992772
  0.7166318452184584  0.5000214959702092  0.6185868878729295
  0.6846239030023114  0.5995057114577946  0.7275782740255465
  0.7064223490597143  0.7236820045246759  0.7801171386152603
  0.7114647391242883  0.7977631206108313  0.9028360734316792
  0.6944505429608299  0.8872592661545013  0.0056048234906001
  0.7226412438139249  0.9951606659753978  0.1208540326153553
  0.7243498298534163  0.0955110760239464  0.2274343762077606
  0.6997668638356060  0.2240198543620693  0.3021677607578823
  0.8033464344629309  0.3059524254135866  0.4939084352170440
  0.8201085341942758  0.3801028792949026  0.5886255328274501
  0.8072291681199033  0.4906762808125578  0.7096321680727726
  0.7867686699344887  0.6014321308384751  0.7949117759343949
  0.7874221430928046  0.7168815610123929  0.8880024386105489
  0.7861567148984321  0.7840255804307859  0.0296772130838505
  0.7852933968044482  0.8832143993024459  0.0964172074280043
  0.8211609440542986  0.9743593071593537  0.2187301046330745
  0.8077033270490617  0.0978113347787186  0.3105064669840232
  0.8122912188339555  0.2061531338077955  0.3969833270490639
  0.8830853513691821  0.2880042235000246  0.6118081821181107
  0.9009708252816111  0.3921030126785112  0.7009227506244997
  0.9020325521987118  0.5087759768110445  0.8009598077013749
  0.8865911976245471  0.6254447598623756  0.8749443620681561
  0.8922022038931061  0.6948864278644464  0.9791074789084249
  0.8968130588678918  0.7911517787623126  0.0947062077579304
  0.9038686520243218  0.8990692751095821  0.2112902512136472
  0.9003327261158489  0.0007505325917876  0.3002524122166221
  0.9176464952632344  0.1062402625253327  0.4078353989725230
  0.9221723127680619  0.2196666875618618  0.4907815605410732
  0.0146161804213634  0.2836194443135227  0.6914762058726467
  0.0136445166611665  0.3846827694773083  0.8164887052834970
  0.9916469354762683  0.5145658354149987  0.8895603242682739
  0.9773198816986408  0.6040420549559329  0.9923538365461653
  0.9922181887165920  0.6897775891973410  0.0894041594004804
  0.0002282726115865  0.7957883107885166  0.1976903940236596
  0.9955301362115279  0.8911910816797857  0.3181543568836318
  0.0230791200452458  0.0132464848941893  0.3960753985012033
  0.0056929537634929  0.1051993646604146  0.4836701753310990
  0.9950236701701485  0.2013986129047467  0.5961494975727035
  0.0886688933402482  0.2981522401847556  0.7935490597162627
  0.0878603704576548  0.3877098241975787  0.9151933317622678
  0.1037754065136411  0.4890094829617766  0.9866908738275910
  0.1045161516708291  0.5915886322288699  0.0835604694348859
  0.0656789013526904  0.6930719715322624  0.2051239213837945
  0.0978465320262032  0.7985650501955988  0.2906558990432231
  0.1149112499410876  0.9016380030164513  0.4043778460668364
  0.0902527756044691  0.0181095998491756  0.5131730230475569
  0.0962975397087220  0.0874445713343093  0.5995746901069907
  0.1290823485883976  0.1852906287411074  0.7137194179195916
  0.1989350756468866  0.2905933204505828  0.8942936098411636
  0.1884073111184392  0.3888983857284245  0.0168650478389978
  0.2062763533958645  0.4929446453315762  0.0934733887920061
  0.1993878389970334  0.6085038888627068  0.1860079686100775
  0.1821265122307594  0.6990408003016455  0.3011203091860324
  0.1866150869585681  0.8003198571899901  0.4012348022811878
  0.1933942513079145  0.8951858208040733  0.5155555422538498
  0.2072329235990011  0.9883560093321364  0.6044117627374277
  0.2155255983409532  0.0783691619927396  0.7025030989301015
  0.1806563939293966  0.1908407875760005  0.7786937064618016
  0.3967519168591238  0.3760534071734938  0.9918570467078283
  0.3972216576330325  0.4853741740114046  0.0875401192440037
  0.3906914606211984  0.5805045774614683  0.1799621199981161
  0.4020719135598796  0.6939057076872288  0.2911287656124770
  0.4032438412593677  0.8055748743931730  0.3823700042418849
  0.3888557981807068  0.8884887274355435  0.5028363142762871
  0.4091331281519501  0.9914775906113036  0.6050688127444985
  0.3946150073054611  0.0996167243248323  0.7003730517980884
  0.3940157496347254  0.1939591134467662  0.8046152212848199
  0.3901550940283727  0.2994646938775531  0.8949860762596060
  0.4914956294480817  0.3913950897864922  0.0873149568742022
  0.4917859188386657  0.4915882481029357  0.2054298520054658
  0.4941053014092489  0.5954349479191237  0.2939684955460251
  0.5101018089268052  0.6811627468539356  0.4005122901446967
  0.5017850058914988  0.7852159282650675  0.4897190804543499
  0.5263405768958833  0.9042893967101833  0.5922900216807250
  0.5057780661733489  0.9975138049677170  0.7076927897440726
  0.4823357552905705  0.0885444256963765  0.7954325729367966
  0.4997598293821000  0.1766383814865407  0.8851109845878327
  0.5100029108733537  0.2848710689541392  0.9986836956214376
  0.6079616383089004  0.3999272055427241  0.2011355799594696
  0.6166370966677661  0.4948757091011942  0.2968433614554371
  0.6105039802988159  0.5876708069001282  0.4006214299853923
  0.6193433986897290  0.7057090884667971  0.4937699179902921
  0.6083182575293407  0.8174877682990029  0.6073545963142735
  0.6032746104538802  0.9125268143469825  0.7139456897770629
  0.6082854409200138  0.0102637762171867  0.7951323674412052
  0.6128450520808784  0.0784337158882025  0.9041403294527939
  0.6166184592543686  0.1802579973606058  0.9883789744073184
  0.6146541890936490  0.3010694155629920  0.0910879836923186
  0.6990530173917122  0.3993891916859127  0.3160815251920610
  0.7064975349955205  0.4878518994202778  0.4027355309421665
  0.7017248682660124  0.5895990686713475  0.5109680633454303
  0.6908940717349310  0.6975169034264965  0.6012531474760792
  0.7137896681906000  0.8372668011500224  0.7041226756845944
  0.6985191379554152  0.9085594669368930  0.8151218767969084
  0.7024534726869973  0.0148575420653216  0.8998405622849575
  0.7100807569401866  0.1043627350709357  0.0235737554790987
  0.7252177810246465  0.1938760484517132  0.0968853183767706
  0.7023563288872126  0.3050048621388513  0.2053498416364263
  0.8021889579111061  0.4014839614460115  0.4106209779893462
  0.8038565730310623  0.5040855804307895  0.5178883767733424
  0.7932295715699667  0.6169931573738054  0.6300356402884475
  0.8056134948390437  0.7130889367017019  0.6970305028986203
  0.7936258259885918  0.8402650101333862  0.7902989107790930
  0.7968111575623311  0.8984429146439155  0.9237956186077199
  0.7882916359523051  0.9875840698496461  0.0060155135033213
  0.8076545128906076  0.0946063100344077  0.1200927911580365
  0.8114269251072272  0.2061781906018751  0.2244255347127293
  0.8176878644483168  0.3075123778102480  0.3094577913936902
  0.8982395880661755  0.4050178847150860  0.4994955073761602
  0.8865299726634319  0.5190262591318273  0.6112224899844492
  0.8957147278126030  0.6203004948861732  0.7037463010793203
  0.8759392703963798  0.7278999373144188  0.8046475731724527
  0.8846858288165151  0.8055698807559963  0.9026518612433421
  0.8852990031578472  0.8898253240326142  0.0051722213319536
  0.8861457364377614  0.9952488726021613  0.1043566998161864
  0.8980003379365584  0.1113918720837077  0.2173328571428570
  0.9229596512230742  0.2011943573549502  0.3163638219352407
  0.9116790224819695  0.3007848178347530  0.3996507310175801
  0.9945940439270373  0.3905573219588092  0.6119461945609643
  0.9895334429938245  0.4885959598435221  0.7143032912287310
  0.9977291059056412  0.6132931592590865  0.8006983513220547
  0.9847810708394178  0.7113139355233997  0.8959413220530692
  0.9975932276005111  0.8072173657915798  0.0082761446010267
  0.9919058061931452  0.8998716519771861  0.0998915006834125
  0.0061619173304450  0.0002758010086268  0.2146272559739799
  0.0156054757977060  0.1104119786020661  0.3014924598199542
  0.0100269071970587  0.2079130117358687  0.3978112664372944
  0.9948747136729992  0.3216734345100605  0.5027160508083170
  0.0976444412499404  0.3997804001508243  0.6829699057359662
  0.0950852816137981  0.4938959565442786  0.8175836178536073
  0.0869770038176938  0.6098682919357117  0.8914477819672868
  0.1043242164302214  0.6989035306593792  0.0064486411839582
  0.0902048560116882  0.8194409365131747  0.1161499693641872
  0.0907640670217305  0.9126092699250634  0.2092964420040531
  0.1058099976433979  0.0063005778385232  0.2818397921478066
  0.1199147367676829  0.1232629608332942  0.4195137116463243
  0.1243962233114928  0.2123088259414629  0.4969941495027541
  0.1034730612244914  0.2958843870481189  0.5884286143187083
  0.1901130649950531  0.3782830206909580  0.7828411542630889
  0.1960321756138939  0.4751412617240902  0.8940360498656759
  0.2146686317575544  0.5955532252439113  0.9886361092520133
  0.1939953216760131  0.6991048885327800  0.1044197638685986
  0.1963711773577757  0.7845316595183078  0.2190441579865237
  0.2054269185087421  0.8979537187161242  0.3079421968233049
  0.1986417584955475  0.0176348489418885  0.4091373356270935