Li 
 1.0000000000000000
    21.2169999999999987    0.0000000000000006    0.0000000000000000
     0.0000000000000006   21.2169999999999987    0.0000000000000000
    -0.0000000000000006   -0.0000000000000006   21.2169999999999987
 Li 
 500
Cartesian
 -0.5344755400000000 -0.1640212100000000  0.3257593300000000
 -0.2194145200000000  2.0681850300000000  2.6875707000000002
  0.0069177000000000  4.1407382100000003  4.1118236300000000
  0.1911666700000000  6.6084866099999999  6.0546896600000002
  0.1759823400000000  8.6446053999999997  8.1272616699999993
 -0.3710939900000000 10.3952835300000004 10.8206500099999996
 -0.4103008800000000 12.3361893600000005 12.7111080600000008
 -0.3889548100000000 15.1053362900000003 14.8062642499999999
  0.0515055400000000 17.2388115000000006 17.0802338899999988
 -0.1325820700000000 19.3298966599999993 19.3354613999999998
  2.0755368800000000 -0.0289004700000000  1.7373616000000001
  2.3785653199999999  2.4581786900000000  4.1105891400000001
  2.1849595700000002  4.2631621099999997  6.2986734699999998
  2.0646337899999998  6.4544906800000001  8.3321231000000004
  2.0645604500000001  8.7083965100000000 10.4213508499999996
  2.3702709500000001 11.0485852100000006 12.4821903699999996
  1.6974587600000000 12.8704210600000000 15.1549001699999994
  1.9159894500000001 14.5910872699999992 17.1048490300000005
  2.1717977999999998 16.9636816099999983 19.4924843500000016
  1.9818618500000000 19.3086376500000014 21.4387559900000007
  4.3997140400000001  0.1175150800000000  4.0190963300000000
  4.4517660699999997  2.1737198900000001  6.5182889499999996
  4.2928043499999999  4.4824702099999998  8.1889844499999995
  4.1740726400000003  6.5185748900000000 10.5939867200000002
  4.0955538699999998  8.7855863000000003 12.6840764900000007
  4.2666499800000004 10.8327956000000007 14.8751513800000001
  4.2877781400000003 13.0614656500000006 17.0697056099999998
  4.2916114700000003 15.0027577200000000 19.3257929900000001
  4.2174023399999996 17.1386189299999998  0.3061395600000000
  4.4344709800000004 19.0563135899999985  2.1554828900000000
  6.2634520800000004  0.0614554300000000  6.1123718599999997
  6.2723725999999997  2.0241980300000000  8.5582328299999997
  6.4040309799999999  4.4406194100000000 10.4407456599999993
  6.6345795200000000  6.3438560400000004 11.9626824599999999
  6.0896798299999997  8.4745195100000004 14.6612655699999994
  6.0454530599999998 10.4831635599999995 16.7626366000000004
  6.6750407699999998 12.7750375500000004 19.1862273999999999
  6.4585099499999998 15.0120763799999999 -0.0630478300000000
  6.4468050799999999 16.8348040899999987  2.4514930599999998
  6.1255675600000004 19.4735251699999985  4.3532687799999996
  8.4816495300000003  0.0128693100000000  8.4111647800000000
  8.3599895800000006  2.1845052599999999 10.8767559600000006
  8.5875408199999992  4.0068995200000002 12.5414509100000000
  8.2293529400000001  6.4078740800000000 14.8335457000000002
  8.0920906800000001  8.4630246499999995 17.0317432800000006
  8.0860602400000001 10.2132927999999996 19.2489045700000005
  8.8773395300000004 12.8050739799999995  0.3359238800000000
  8.2948308500000003 15.0200057099999995  1.9232544499999999
  8.6057698100000000 16.6018563000000015  4.3626861300000002
  8.0629545799999995 19.1643470299999983  6.1281815100000001
 10.5571386500000006  0.0275554100000000 10.3291406899999991
 10.5465633200000006  2.0374325999999998 12.8836126899999996
 10.3698702100000002  3.9871665799999998 15.2436036999999995
 10.5963508900000001  6.4244463800000000 16.7126388800000001
 10.4082985899999994  8.2550827400000006 19.2127407599999991
 10.5852087000000008 10.3745853199999996 -0.4424782400000000
 10.7742199000000003 12.2494315500000006  2.1095508600000001
 10.4884232900000001 14.3637831400000007  4.2462163400000001
 10.5552249299999996 16.9286844000000016  6.0951884900000000
  9.9967715100000003 18.9795558100000008  8.1559596100000000
 12.8181236900000002  0.0172494000000000 12.8614402099999996
 12.6372586499999997  2.2575498999999999 14.9011752699999995
 12.9620757399999995  4.0311936499999996 16.4315668499999994
 12.7204905299999993  5.9198759699999997 19.0947913699999994
 12.7027455600000003  8.2165749699999999 -0.3689368900000000
 12.5556027300000004 10.1277137100000001  2.0958413100000000
 12.7816246899999992 12.1723088599999993  4.1744962299999999
 13.0109558300000003 14.3788981600000003  5.9650318899999997
 12.3649144100000008 16.8379796000000006  8.0521698300000004
 12.2805852699999996 19.1122921499999983 10.0104223300000008
 14.6576665100000003  0.3111034500000000 14.5642901800000004
 15.3260126999999997  2.1828908199999999 16.7120260099999989
 15.2581069599999992  4.3972026199999998 18.9190280100000017
 15.1391682500000009  6.0714618299999996  0.1151149700000000
 14.8828390499999994  8.5550069000000004  2.0291593699999999
 14.9737236500000002 10.4576524200000005  4.2508594200000003
 15.2513336899999992 12.6159365399999999  6.6500899799999997
 15.0745042900000001 14.7298447100000001  8.4543158700000003
 14.4430388999999995 16.9240028500000008 10.3343729300000007
 14.7959168600000002 19.3832433699999989 12.4290917499999995
 17.3705203600000004 -0.0066333000000000 17.1754209799999984
 16.8856931299999999  1.9675327400000000 19.3648695999999987
 16.9424561099999984  4.4416967100000004  0.1660712400000000
 17.0124424900000015  6.5160574300000000  2.5031169499999999
 17.0486377699999991  8.3132249500000004  4.3438844200000002
 17.2552192399999988 10.4319145800000008  6.5333170999999997
 17.2979190799999998 12.7994764199999995  8.6050407500000006
 16.7784824899999983 14.8173274999999993 10.9671621699999999
 16.4917405499999994 17.2023024299999996 12.3723705299999995
 16.9206934500000017 19.7886619699999997 14.4507483099999998
 18.6488337599999987 -0.4113110100000000 19.1471722299999989
 18.9479750299999985  1.9894930200000001 21.2839869700000008
 18.9981077899999988  4.3907539199999999  2.2654886200000002
 19.7490421500000011  6.3688585299999998  4.0040883699999998
 19.3167416500000009  8.3028753900000005  6.4371886299999996
 19.1572028199999984 10.4664059300000005  8.4399040099999993
 18.7172199699999986 12.9317741999999996 10.8773993200000003
 18.8966207799999992 15.0320659200000009 12.9712090399999997
 18.8325147299999998 17.0131363799999988 14.7671088899999994
 19.1782582700000006 19.0308238400000000 16.9572085500000007
  1.8819286300000000  1.8385770500000000  0.1740227700000000
  1.6893615799999999  4.2148569100000000  1.7501626699999999
  2.4083207799999999  5.8878451800000002  3.9746465700000000
  2.2313156400000000  8.7307152600000002  5.9719127600000004
  2.3543990799999999 10.8286984299999993  8.5320332099999998
  2.0077161700000001 12.9105317199999998 10.6083598600000002
  2.1083168400000001 15.0383505799999995 12.4487074199999999
  1.9588125999999999 17.1534079599999991 15.1102913399999998
  2.3586876800000001 19.4073613199999997 17.4331896200000003
  2.1120655699999999 21.1618975999999996 19.3386629899999996
  4.3492573600000002  2.4708787900000000  2.2150140199999999
  4.1047942300000004  4.2418599900000000  4.2048185699999996
  4.1511028300000001  6.6378567999999998  6.1522358800000001
  4.1642711900000000  8.5985857800000005  8.6007084799999998
  4.5033877899999997 10.8776203700000007 10.3331395900000000
  4.4747349300000003 12.8288404600000003 12.8447806100000008
  4.0979783500000000 15.1024634800000008 14.7813639800000001
  3.8370865699999999 17.2931183699999984 17.4679971800000011
  4.1995042600000003 19.1811597800000015 19.5001423400000000
  4.2484942600000002 21.1512840900000008 21.3265489899999992
  6.5421685500000004  2.1071677900000001  4.3216013999999996
  6.3096261699999996  4.3856583499999999  6.2557913400000000
  6.3742481900000003  6.8355012300000002  8.4335730600000005
  6.2507690399999998  9.0501438299999997 10.9659428000000005
  6.3392038099999999 11.1088056099999992 13.2169336200000007
  6.5743637000000001 13.3119992600000003 14.5050236300000002
  6.7541010300000002 14.9819501299999995 16.7627221900000016
  6.2684686000000003 17.1392162600000013 19.0910749600000003
  6.6506073600000004 18.9435383600000016  0.1065670800000000
  6.4909736599999999 21.4331895599999989  2.2541225100000002
  8.4325040199999997  2.5280515000000001  6.0231973700000001
  8.6268391799999993  4.1730991700000004  8.5274795300000008
  8.7402901699999997  6.7289684500000000 10.6898476999999996
  8.4451327200000001  8.8987881699999996 13.1665071499999993
  8.9368291499999994 10.7110557400000008 15.0490212799999998
  8.1721270300000004 13.0214337199999992 17.1616994200000015
  8.6285761599999997 14.7843777599999999 19.5552813000000008
  8.6286570699999992 16.9530735399999983  0.1418061900000000
  8.1876283900000004 19.2803160499999997  1.9600096600000001
  8.5517879600000004 21.2070439200000003  4.3761869300000003
 10.4919690699999997  2.2325767800000000  7.9539260000000001
 10.4704192999999997  4.3859928300000002 10.4457184099999996
 10.3053663100000001  6.3480257399999998 13.0883229300000004
 10.4584898299999995  8.4587506799999996 15.2580358799999996
 10.4167020800000003 10.4970171899999993 16.9386447400000009
 10.4367148400000005 12.5419006900000003 18.6695796799999982
 10.6511924100000002 14.8105670800000002 -0.1680397200000000
 10.4533694399999995 16.9980824800000008  1.7698297300000001
 10.3863668400000009 18.5737872800000012  4.1845433999999999
 10.2777525099999991 20.8879539799999989  6.0690472800000004
 12.6371225099999993  2.4427871200000002 10.4162684700000003
 12.5188817300000004  4.7420264000000003 12.8875080700000009
 12.6738905299999995  6.4329262299999996 14.3116125299999997
 13.1243444700000005  8.4333114899999995 17.1014747000000007
 12.8087988999999993 10.3759339799999992 18.6469829199999992
 12.7950694499999997 12.5711930299999999 -0.2477951300000000
 12.0496615400000007 14.3831404400000000  1.8884829200000000
 12.5379957799999993 16.5533686600000003  3.9920211200000000
 12.8398281000000001 18.7954886399999985  6.0456613099999998
 12.1153347399999998 21.4656101399999990  7.8918647200000001
 14.2219215099999996  2.3384452100000002 12.7391214300000009
 14.7858073900000004  4.3331730799999999 15.0023537600000001
 14.6126279500000003  6.2817947600000004 16.9168410000000016
 14.7816154500000003  8.3607613500000006 19.0148725399999989
 14.5227941800000000 10.4896120400000008 -0.3858229200000000
 14.9381178099999996 11.9957953800000006  1.7999040900000001
 14.7101405199999995 14.2618500200000007  3.4789383200000001
 14.9036357400000004 16.5669509800000014  6.1378335499999999
 14.5258763399999999 19.0707585699999989  8.1982514799999997
 14.4250828299999991 21.1021427199999998  9.9398703899999994
 17.3724996500000017  1.9087584200000001 14.3591610799999998
 17.3281313799999985  4.3156411200000004 16.9279277700000002
 17.3465638400000017  6.5341891299999997 19.0946662700000012
 16.9776655800000000  8.2689750100000001 -0.1828313700000000
 17.1437036700000007 10.3475686099999997  2.3664682899999998
 16.9919339399999991 12.5711560900000006  4.7880452599999996
 17.1783151799999985 14.5248079400000005  6.3020552900000002
 17.0648240800000011 16.8665012800000014  9.0412776899999994
 16.6567801799999984 19.1833928799999995 10.1918731499999993
 16.6518359099999991 21.6587316399999992 11.6026194900000004
 18.9610133000000012  2.2621983399999999 17.2736490200000006
 18.9822673199999983  4.2281425500000003 19.4388246500000008
 18.8333654499999987  6.5677695900000002  0.3469387200000000
 19.1868530799999988  8.6379946000000007  2.4208676300000000
 19.0844828900000003 10.3343855100000006  4.3995218800000000
 19.1624136100000015 12.6883415599999996  6.7682094099999999
 19.2054886700000012 15.4837728000000006  8.8538215600000001
 19.1917684299999998 17.3184447900000009 11.0470858599999993
 18.6996146900000006 19.3637963500000012 13.0517256499999998
 19.3060468900000011 21.2561244999999985 14.5633973900000004
 21.0142125899999996  1.9890857399999999 19.1186240000000005
 20.9473837899999999  4.0629181499999998 21.3916988299999993
 21.4923502900000010  6.9009178799999997  1.7517049800000000
 21.2504051300000008  8.5959891699999993  4.3433395800000003
 21.1769786700000004 10.5089515599999999  6.4289479800000002
 20.9481049699999993 12.6589021000000006  8.7433074299999998
 21.1305713299999987 15.1436640699999998 10.8558459599999999
 20.9464171000000015 17.5041546200000013 12.9907774400000005
 21.1268264700000010 19.1423162200000014 15.1106824799999995
 20.7697156999999990 21.4813634700000016 16.9962504999999986
  4.2409938599999997  3.5289856500000001 -0.1833307400000000
  4.3778638499999998  5.9563658300000002  1.6343827000000000
  4.1250238699999997  8.6194923899999996  4.1446882199999999
  4.2350662899999998 11.0875218499999999  6.4252022000000002
  4.5971339300000000 13.3023022300000004  8.1301103900000005
  4.4214782100000001 14.8828528099999993 10.7864445199999999
  3.9820343500000002 16.9325162400000018 12.7899206299999992
  4.4032369200000003 19.1367818499999984 15.0577669400000005
  4.4721540600000003 -0.1796979700000000 16.6408919100000006
  4.1620185200000002  2.2044247299999999 19.1834453899999993
  6.4995527900000001  4.2008544800000003  1.6003446699999999
  6.4846378500000004  6.1251569600000000  3.7399734599999999
  6.4688906599999996  8.3603844600000006  6.1746076499999996
  6.6260478799999998 10.5604246899999996  8.0393875500000007
  6.7820936999999999 13.1195448999999993 10.8617387399999998
  6.5400837000000003 15.2525512299999999 12.6239583599999996
  6.3506751399999999 17.1101106300000012 15.4244978199999991
  6.5356778899999997 19.5556560899999994 17.1608285500000015
  6.2879192000000002 -0.2776951000000000 19.2361364200000011
  6.6113546400000001  1.9179250699999999 20.8642082600000016
  8.8986280400000002  4.3962401299999998  3.3611174099999999
  8.5140771199999996  6.2086946999999997  5.7566128900000004
  8.6371514499999993  8.3266169500000000  8.3865044599999994
  8.4553853500000002 10.6906692700000008 10.8139517499999993
  8.5406373400000000 13.2617824800000008 13.0365344200000006
  8.8044788100000009 15.3830012600000003 15.2013687199999996
  8.5082108900000009 17.0282978999999983 17.1948400100000001
  8.4429670399999992 19.1789385299999999 19.7538710100000010
  8.3543461499999996 -0.0436527500000000 -0.0764011200000000
  8.8966262700000005  2.3919044199999999  1.8584060800000000
 10.7134787700000000  4.2720148299999998  5.7981883800000000
 10.5728124599999997  6.5244908199999996  8.1016056600000006
 10.2045801300000001  8.3094619000000005 11.0059975899999998
 10.5058032400000005 10.8283385699999997 13.1092612400000004
 10.7154122399999991 13.0731108700000007 15.3041084999999999
 10.5146559400000008 14.8045335100000006 17.5909010499999994
 10.5741252100000001 16.8377525500000012 19.0282588699999984
 10.9033640599999995 18.9619899300000014  0.0165255600000000
 10.7397300100000006 -0.1608113800000000  2.1755717699999999
 10.3998306899999999  2.1480298599999998  3.7767790300000001
 12.2101779900000000  4.1757569700000001  8.3589408100000000
 11.8836750799999997  6.6658808100000000 10.7081204999999997
 12.7924764100000008  8.6433755600000008 12.5358865399999999
 12.9138478200000009 10.4556777400000005 15.2701899399999999
 12.7300055400000005 12.6221357500000000 17.0310740900000006
 13.1026489500000007 15.2694609700000008 19.1938055900000002
 13.0882720100000007 16.8532573200000009 -0.1608825600000000
 12.5097681200000004 18.7076583399999983  2.2933966899999998
 12.8116955600000004 -0.2647599800000000  4.1699894700000000
 12.7981137999999994  1.9993921299999999  5.9623568899999997
 14.4139131999999996  4.8097686599999996 10.8580908300000001
 15.0249401599999999  6.4185183200000004 12.4465544000000001
 15.2042230299999996  8.5627274300000007 14.7800065499999995
 15.1669608100000008 10.5602290599999993 17.1218212100000002
 14.9270786999999991 13.0986502500000004 18.8025443500000016
 14.6359311299999995 14.8035445499999998  0.0328773200000000
 14.8108714700000004 16.6310000400000000  2.2134122999999999
 14.6748929599999993 18.7813722200000015  4.2407069399999999
 15.0041445299999996 -0.1697127400000000  6.4331000400000002
 14.4300350900000005  2.0366735800000000  8.3773660900000007
 16.8567676900000016  4.1579607300000001 12.6288608399999998
 16.7691944900000003  6.2332751999999996 14.8190442099999995
 17.2449952400000015  8.0709349699999997 16.9972789800000008
 17.0180387599999996 10.1842664900000006 18.7953301800000006
 16.8745911100000008 12.1726871699999997 -0.0688245700000000
 17.3333414200000000 14.2628412099999995  1.9194361600000001
 16.8437143300000010 16.6834392600000001  4.2270852799999998
 17.1561690700000007 18.8836367699999990  6.5936583600000001
 17.1743704199999989 -0.1101812800000000  8.2253917100000002
 17.0872136899999987  2.6516128600000002 10.2001787299999993
 19.0650654300000006  4.3328366100000002 14.9279815899999999
 19.3616404600000003  6.3335991600000003 16.9117500800000009
 19.5819529000000010  8.7455132599999992 19.1763999900000002
 19.1664890600000000 10.7803602299999994 -0.2585804000000000
 18.9511463000000013 12.5890192400000007  2.0725261000000001
 19.1828707200000004 15.1479846899999995  4.4233492999999999
 19.3530395900000016 16.9693061999999983  6.6904040499999997
 19.2570441999999993 19.1576351000000003  8.3407932799999998
 19.2440281400000011  0.0828041500000000 10.6026118399999998
 19.2428862800000005  2.1074423100000002 12.5678973400000000
  0.0785944800000000  4.0055797599999998 17.1437116399999994
  0.0007366900000000  5.7959116100000001 19.3592313500000017
  0.1301585600000000  8.6040887700000006 -0.2147085900000000
  0.1934190000000000 10.7845151200000000  1.6559366099999999
 -0.2567718900000000 12.5754041599999997  4.2004957200000002
  0.0038614200000000 14.6511144099999999  6.3410875999999998
  0.2399129800000000 16.9027753999999995  8.9920872000000003
  0.0190900600000000 19.2552660499999995 10.9562868800000004
  0.1805352100000000 -0.2990644600000000 12.9804184599999992
  0.0602303600000000  2.3567289400000000 15.0260620800000009
  2.3342403500000000  4.0595934500000004 19.4063414499999993
  1.7631846099999999  6.1284889299999996 20.7061770900000006
  1.9194470500000000  7.9623963399999997  2.1282292599999999
  1.9221787299999999 10.8590497700000004  4.0053542799999997
  1.7993123000000000 12.8271237700000000  6.2020869300000001
  1.7615843000000000 14.7135665299999996  8.5693450299999991
  2.2413699299999998 16.9679143799999999 10.7531846000000009
  1.9666740100000000 18.9589401799999990 12.8209311499999998
  1.6611393400000001 -0.1978453300000000 14.8659505299999992
  2.2420652699999999  1.4636074500000000 16.8871777899999991
  6.7741115100000000  6.2841240000000003  0.1244147800000000
  6.5983900999999996  8.4705840999999999  1.9086023100000000
  6.0221105699999997 10.2561818700000007  3.9491088599999999
  6.3638624699999999 12.9073638200000005  5.6800552599999996
  6.5023198700000000 15.0280337700000004  8.4437556499999999
  6.3014168699999997 16.9520472899999994 10.4943461500000002
  6.4903394399999996 18.7793904699999992 12.9605044399999993
  6.3919891299999998  0.2607180400000000 14.5748522900000008
  6.2289032600000001  2.2075632299999999 17.6562891099999995
  6.1104498800000000  4.1725777500000003 19.5565542299999997
  8.5127573099999996  6.2805423999999999  1.8323012999999999
  8.5822792299999993  8.6545688799999994  3.9602818800000001
  7.9508315100000004 10.7244919299999992  6.0978054899999998
  8.1327485500000005 12.9373145300000001  8.5261480800000005
  8.4603570900000005 14.8714185600000004 10.5438177500000005
  8.5809446099999995 17.3802110600000006 13.1843951700000002
  8.4950369899999991 19.2703538700000010 15.3853390099999991
  8.3035299299999998  0.4184911700000000 17.2829575499999990
  8.4084790399999996  1.8692501200000000 19.2485854100000005
  8.8435678699999993  4.1970091700000003 21.2051800200000002
 10.4600583900000004  6.4348001400000001  3.7664684300000002
 10.4860235799999995  8.5366496800000000  6.3851172800000002
 10.5060928300000000 10.2321554399999997  8.5664627000000007
 10.6734772800000002 12.7032196099999997 10.7832966500000005
 10.9135249600000002 14.6984523800000009 12.4945638199999998
 10.6534548400000002 17.1424894700000010 14.8632086300000008
 10.3959154300000005 19.3824328900000005 17.1550710399999993
 11.0867131499999996 -0.3420241300000000 19.0509651200000008
 11.1369957599999996  2.0585965900000001 -0.0225163100000000
 11.1636868299999996  4.1708599800000004  1.7457366400000001
 12.3398417400000007  6.3735326700000003  6.3289152000000000
 12.6306140800000009  8.8524346900000008  8.8225218900000009
 12.7799088199999993 10.4518807500000008 10.9350291399999993
 12.8109788899999995 12.8160416000000001 12.9109384299999999
 12.4693843199999996 15.4794983700000000 15.1665593699999999
 12.8573050500000008 17.2346396199999994 17.0845363600000013
 12.8539365199999995 19.1028300999999985 19.0109112899999992
 13.5100695799999997  0.1277470900000000  0.6713116500000000
 13.0746245499999993  1.9352086600000000  2.7699723999999999
 12.8475852199999991  4.3384223700000000  4.0315550000000000
 14.7211082500000003  6.6491102199999998  8.7259289100000004
 14.7940547099999993  8.3513294600000005 10.6922808600000003
 15.2047778600000001 10.6089560800000005 13.1245580000000004
 14.5256653500000006 12.7197126800000007 15.4370282400000001
 14.9881629800000002 15.3543610899999994 16.5517453299999993
 15.0951473699999994 16.9261401300000003 19.1554729700000017
 14.7341571699999996 18.8249798499999983  0.1189175400000000
 15.3322792700000008 -0.1026761500000000  2.5641600100000002
 15.3685303399999995  2.0264584999999999  4.8254751599999999
 14.8469535500000003  4.7530292500000000  6.4110933799999996
 17.0446013000000001  6.4913926100000001 10.4792552699999995
 17.4002427699999984  8.0646427900000006 12.4888679299999996
 17.1269812600000009 10.4106786499999995 15.0562657099999999
 16.6928708700000001 12.7605855199999993 16.8656431500000004
 16.7067356099999991 15.2100760800000003 18.8407477400000012
 16.6798870199999989 16.6346707400000007  0.6296614300000000
 16.6615700000000011 18.7391599100000015  2.0456838899999998
 17.4225717499999995 -0.5440185800000000  4.6407966299999996
 17.1370414900000014  2.0752630900000000  6.5880157099999996
 17.2343827900000015  4.3739510399999997  8.4227952500000001
 18.7364218999999999  6.1105856100000002 12.9807342000000006
 19.1158980000000014  8.3192496200000008 14.8714779999999998
 19.1384246599999983 10.7946998999999995 16.9939642400000004
 18.8108054399999993 13.2700614699999999 18.5636945299999994
 18.9298541600000014 14.7434053400000007 -0.4432766200000000
 19.0276826700000008 16.7858672899999988  2.0093816100000002
 19.1773811899999984 19.0755528100000014  4.4829452600000002
 19.1023594500000016  0.0159240500000000  6.3704554299999998
 19.4697056900000014  2.2540996500000001  8.6530436599999998
 19.5657299599999988  4.6606681099999996 10.4129123700000008
  0.3101115000000000  6.0175537500000003 14.6710506600000006
  0.2894957100000000  8.1618143199999995 17.3234408600000016
 -0.1772269700000000 10.9175433300000009 18.8738014000000014
 -0.4812040700000000 12.8159602800000005 -0.1622286500000000
 -0.1651066900000000 14.6350111100000007  1.8968880500000000
  0.0048432600000000 16.8842405900000010  4.1943970899999998
 -0.0948371000000000 18.9084011799999985  6.7502809900000003
  0.4896696900000000  0.2810506700000000  8.4035317299999992
  0.1207874000000000  2.2320149200000001 10.2620301099999995
 -0.1055827900000000  4.2730743699999998 12.6485038900000006
  1.8812879100000000  6.3258960799999997 16.8367304000000004
  1.8641334800000000  8.2260393399999998 19.4176569199999989
  2.2018027999999998 10.3753142000000000 -0.2823797300000000
  2.2175191900000000 12.5517360100000008  1.7729024799999999
  1.3935092499999999 14.7049080199999995  4.3521142399999997
  2.0760098700000000 16.9431546699999984  6.1668462100000001
  2.4380719900000001 19.1300535099999998  8.5796847599999992
  1.9148931400000000  0.3842313800000000 10.8879920299999995
  2.0431449000000002  1.8553114700000000 12.7211762000000004
  2.7387401900000001  3.9313112700000001 15.1429848899999993
  4.2208055000000000  6.1655184800000002 18.9742275199999995
  3.9974379199999999  8.2512570499999995 21.5748257199999998
  4.3765653899999997 10.4588065399999994  1.9832248900000000
  4.2304117799999998 12.9106270100000007  3.9465310699999998
  3.8641782099999999 14.8315486599999993  6.3888695999999996
  3.9594122999999999 16.9803864100000013  8.5129988000000001
  4.1032458299999996 18.9931575600000002 10.9385419400000004
  4.3968609399999998 -0.2470505500000000 12.8238043699999995
  4.5728066199999997  1.6627585100000000 14.9050082499999998
  3.8329867100000001  4.0490689900000003 16.5215443700000009
  8.4178854199999993  7.9787251399999999 -0.1727690400000000
  8.4278519099999993 10.2981838499999991  1.8573387100000001
  8.2893007200000000 12.3165656200000004  3.8182562999999998
  8.5307597899999994 14.7225973999999997  6.1768790200000003
  8.5556245799999999 17.0918821100000002  8.1127443800000005
  8.2503534700000003 18.8510653300000008 10.6686780799999994
  8.6805775799999996 -0.1808199600000000 12.8377450000000000
  8.3725466100000006  2.1135680400000001 14.8598150400000009
  8.3598321599999998  4.1152305100000000 17.0715211499999988
  8.2779206300000006  6.3537424099999997 18.9889195800000010
 10.4280627700000004  8.3042296199999992  1.8525614399999999
 10.4342218399999993 10.4300278599999992  4.3586051699999997
 10.4834321799999994 12.6333432899999991  6.2371295699999996
 10.8228300799999992 14.4522300000000001  8.4976692600000003
 10.6463724699999993 16.6599263499999992 10.3903697299999997
 11.1673680199999996 19.1863081300000005 12.5666173899999993
 10.7310932300000008 -0.0527496000000000 15.0151179199999998
 10.2337177199999996  1.8786470799999999 16.8766928999999983
 10.6034042999999993  3.7477365400000000 18.7793997600000004
 10.8207317599999993  6.0441094700000004 21.1890719700000005
 12.8991220799999997  8.4852555200000008  4.2674935999999999
 13.0831892799999991 10.4997779199999997  6.2981255999999997
 12.9530629499999996 12.4686115100000006  8.4999848799999995
 13.1406088899999993 14.9730297300000004 10.4763163499999994
 12.9066884700000006 17.3446379800000017 12.8862424699999991
 12.7996774099999993 19.3610814200000014 15.1477857000000000
 12.9059922000000000  0.2177665400000000 16.8703234399999999
 13.0027334700000008  1.6641281500000000 19.1831453699999983
 13.0827938499999998  3.8245339299999999 -0.2465633000000000
 13.0411179300000004  6.3877897900000002  1.9326137500000000
 14.8318078700000004  8.4738404799999998  6.7063017199999999
 14.9897582000000007 10.3507537500000009  8.5448397600000003
 14.8884965299999994 12.5095234400000006 10.8412094000000003
 14.6586995200000008 14.7992161400000004 12.7567880299999992
 15.1444753900000002 17.7642897200000007 14.9393708099999998
 14.8204805499999992 19.2769062099999999 17.2944408600000017
 14.9039553300000005  0.3152324700000000 19.0919172099999983
 15.0657834200000007  2.2142641500000000  0.5001643700000000
 15.3869456600000003  4.1134681200000003  2.0556158000000000
 14.9018942299999999  6.4712881600000003  4.3569075899999996
 17.0200431200000004  8.5182852100000002  8.7121452900000005
 17.0554249099999993 10.6951837600000008 10.9880376900000005
 16.8299518200000016 13.0907438200000001 13.3674661799999992
 17.0927015199999985 15.1296079700000003 14.7888961800000001
 16.8383591499999987 17.8279027200000009 16.7677719900000000
 16.9059423299999985 19.0622633199999996 19.6001716399999992
 16.7251836400000009 -0.2634287900000000  0.1276311500000000
 17.1360057999999995  2.0072620799999998  2.5480087500000002
 17.2160450699999998  4.3744826699999999  4.7616365700000003
 17.3488834199999999  6.5244901200000003  6.5657659600000002
 19.0579493400000004  8.5932644600000003 10.5977961799999996
 18.8095064299999990 11.0121801399999999 12.9683075700000003
 19.0043793799999996 13.1609155999999992 14.9313852699999998
 18.5848034999999996 15.4438529700000000 17.0722075599999989
 18.7703792299999996 17.0917761599999984 19.1515645399999990
 18.7833889499999991 18.8794238999999990  0.1097390200000000
 18.8013540900000002 -0.1008046700000000  2.2141361000000002
 19.0528731700000016  2.3634013500000002  4.6111512299999999
 19.5824349200000007  4.2687406799999996  6.7122912100000001
 19.3430938200000000  6.3817514800000001  8.4793895599999995
 -0.1146981700000000  8.2864547000000002 12.9836624100000009
 -0.2220689400000000 10.3665404799999994 15.1553729300000004
 -0.0481815600000000 13.0122409599999997 16.9884169199999988
 -0.3229000200000000 15.0919477700000009 19.0091870299999997
 -0.0510644900000000 17.1267308500000013  0.1755949600000000
 -0.1717345100000000 19.0925768399999995  2.1193979700000001
  0.1307374000000000  0.0058516700000000  4.5537464900000000
  0.3311013800000000  2.3426109500000001  6.3967655199999998
  0.2127408900000000  4.4112903699999997  8.4403616400000008
 -0.1087432000000000  6.8249452599999998 10.6661264500000001
  2.0717221100000001  8.4821407499999992 14.4905724899999999
  2.0174244200000002 10.4789905099999991 17.3466716199999986
  1.8453910899999999 12.9395755500000007 18.9138475899999996
  2.2134469000000001 14.8286362100000009  0.1368208200000000
  1.9138764300000000 17.3860783499999982  2.4643538999999999
  1.9257412100000000 19.3628308800000006  4.4406426100000003
  2.2449707200000000  0.1336793600000000  5.9797948700000001
  2.5442309700000001  2.6152702400000001  8.9008224200000008
  2.6393146700000001  4.5045563599999996 10.5447248699999996
  2.1953879399999998  6.2777790400000004 12.4846899100000002
  4.0336289000000001  8.0260308499999997 16.6095407699999988
  4.1592146699999999 10.0810721500000007 18.9687628699999991
  4.5546243600000000 12.6358527800000005 -0.2411076700000000
  4.1159987400000002 14.8329084200000008  2.2154741300000000
  4.1664072699999997 16.6454082200000002  4.6474599000000003
  4.3585429299999996 19.0518840500000017  6.5336095900000002
  4.2145821899999998  0.3741585900000000  8.6806668499999997