Li                                      
   1.00000000000000     
   -11.0705700000000018   19.1747897087477881    0.0000000000000013
   -18.9781199999999970  -10.9570226907130195    0.0000000000000076
     0.0000000000000001    0.0000000000000001   23.2203000000000017
   Li
   504
Direct
  0.9896424769756607  0.0005338570768600  0.9844261508249232
  0.9366323781469035  0.0609666507250566  0.6494609647592853
  0.8380108894497411  0.0747212825919732  0.3427838430166688
  0.7855223410831016  0.1300442850227341  0.0019197887193556
  0.7324230796296263  0.1571872449612854  0.6544422315818466
  0.6387343713126441  0.2254022300932590  0.3247300108095104
  0.5864410921546295  0.2535420019699401  0.0038363539661432
  0.5038695853602562  0.2954307799928699  0.6651729447939942
  0.4079764793694522  0.3407336731344799  0.3266853933842384
  0.3556600863135415  0.3865001490274054  0.9899757389008741
  0.2836486965315075  0.4036823763175263  0.6678713461927686
  0.1949013463122498  0.4575699385690442  0.3142504933183474
  0.0479757077823280  0.0581256519979974  0.6680821216780117
  0.9757925917797721  0.0689254808811697  0.3428547318510127
  0.9378423827195661  0.1659938488710253  0.0041634393181837
  0.8536596188376606  0.1735889773847106  0.6849869751898154
  0.7775640081671469  0.2106602365305434  0.3097512387867525
  0.7189713925879602  0.2482441833204518  0.9987619298630932
  0.6581353764256903  0.2988725719830541  0.6590475140286713
  0.5746464854558795  0.3142219891910614  0.3251111070916366
  0.5167876616404001  0.3845357114758272  0.9882360158998793
  0.4174430236840294  0.4123084365202843  0.6774677644130378
  0.3545229788553215  0.4439095166419875  0.3309971550755151
  0.2963785115283741  0.5008520697323746  0.9805237804851785
  0.1345001401168133  0.0935704371047805  0.3269869596861383
  0.0618314996002240  0.1216771690489225  0.9984543933540877
  0.0216110241885374  0.1933692211846676  0.6657503813473582
  0.9202517725078536  0.2249732310064303  0.3331181526509113
  0.8495315958639154  0.2654900691310189  0.0028370348358990
  0.8073513660342471  0.3114704268769657  0.6569094232201991
  0.7146080913660668  0.3350297137949170  0.3325487616439062
  0.6647605112666639  0.3812188418445359  0.9759126294664568
  0.5636686073219010  0.4011815093297102  0.6611017764628357
  0.5072550646762508  0.4526083283616629  0.3219670977549782
  0.4641404520297598  0.5084852665054740  0.9946276322872691
  0.3617322916931158  0.5273440137142629  0.6687654849420568
  0.2156042430850391  0.1229555664433590  0.0288375025301164
  0.1571723143533603  0.1559280704247357  0.6655877012786249
  0.0587327759344731  0.1956725351469544  0.3356380748741401
  0.0244461755902066  0.2594886454451952  0.0142239260474639
  0.9400286783981500  0.3035123401994397  0.6628459141354739
  0.8477280772046143  0.3308294710087694  0.3338733164515517
  0.8127787493410139  0.3869710119288854  0.0041190988057878
  0.7232864362991336  0.4245826176091185  0.6520503374202775
  0.6444430586415280  0.4364328014732166  0.3251775175169982
  0.5934601875300416  0.4935784472716733  0.9956385920939894
  0.5257040847004575  0.5239558249730578  0.6689621460532393
  0.4353028139145678  0.5658788387554665  0.3353479627739517
  0.2916540319906531  0.1646188633576529  0.6589218201315248
  0.2134157486543842  0.2252765008029911  0.3276689784369680
  0.1464916351205332  0.2395128842574366  0.9871752617321903
  0.1080397622861256  0.3069039461668552  0.6613587821862765
  0.9866068729375783  0.3224572882173504  0.3532836970237270
  0.9359826541558647  0.3822659825304981  0.0052629927261947
  0.8725326785841361  0.4280676665785066  0.6841476604522754
  0.7568602510753522  0.4575767847527956  0.3265331778659188
  0.7282759831011276  0.5111969641755962  0.0078859351515703
  0.6633132138277631  0.5344514775117233  0.6623312747897288
  0.5556046332580280  0.5709888416340831  0.3194371765222641
  0.5070565945229220  0.6128904146655429  0.9905160019465740
  0.3357695530792952  0.1874656271942072  0.3360977007187671
  0.2850011719168180  0.2333381613253991  0.9956769021072063
  0.2202071789102433  0.2746738829437092  0.6817653970878936
  0.1586859897585455  0.3387957475428962  0.3402755950612146
  0.0826940908687774  0.3652595714670781  0.9998415679383967
  0.0337462807270725  0.4118460847002368  0.6382394228326049
  0.9173804684043816  0.4585671487953746  0.3377851164713661
  0.8779803984140599  0.5238146429008381  0.9961424830859187
  0.7980484672891919  0.5519472450106946  0.6853987584139745
  0.7089619115581982  0.5796491734039648  0.3366467280784491
  0.6483358703107598  0.6183737485174419  0.9951821061743402
  0.5704649265941555  0.6588973316426774  0.6605256430795450
  0.4328353648439744  0.2469731446012204  0.9798039676489978
  0.3524085904340311  0.2889700571499603  0.6641948553636254
  0.2766844504238151  0.3567216006470417  0.3402134485773232
  0.2128881448861932  0.3761581157600062  0.9979820527727910
  0.1623125950588218  0.4090481514775774  0.6711864002618384
  0.0572143040104578  0.4428452614089764  0.3234922740016302
  0.0118321582301988  0.5179787963223745  0.0065470390132774
  0.9242766287974646  0.5369811979022998  0.6574670512439553
  0.8393791530917909  0.5591381627451284  0.3137816010129058
  0.7991351782449101  0.6473226178239599  0.9896362820463125
  0.7085456630316287  0.6793641993628441  0.6582405020606998
  0.6336095458316819  0.6992512651517728  0.3246400076657068
  0.1475170662146041  0.5018120294463628  0.9749923928631432
  0.0733832601478923  0.5373773193395621  0.6769842138129150
  0.9817996451348492  0.5625245794925675  0.3353335749322781
  0.9248060588269382  0.6591258659620820  0.9954262976791881
  0.8450528248048315  0.6780201500096084  0.6665231607688114
  0.7806514695814712  0.6957452640406672  0.3129232158929867
  0.7139084481637141  0.7601084117400561  0.0063872180807323
  0.2252627582894462  0.5423728249143522  0.6639406566667958
  0.1300712680620464  0.5757490068526465  0.3500005865557299
  0.0655154706647423  0.6446222173704754  0.9940999823430374
  0.0054242117750007  0.6624309991637745  0.6564150674194593
  0.9281298504425735  0.7097419065527006  0.3453181948553663
  0.8410103901911512  0.7700131717294241  0.0016866832039213
  0.7677465249494517  0.7934771443794375  0.6697445041623027
  0.2862759937950798  0.5676461631274350  0.3414757199519372
  0.2382916600738980  0.6156526276962992  0.9885472995611622
  0.1521795625696498  0.6704295936585538  0.6542812444283683
  0.0717618895568677  0.7301930859499492  0.3514550608734623
  0.0011852585279044  0.7682628227927069  0.0196189597033651
  0.9068540132443772  0.7970186296955220  0.6750409426234825
  0.8453014186260219  0.8252765470974595  0.3529131260147338
  0.3762693142781188  0.6206285774055615  0.9881469821664695
  0.2960072374960205  0.6570958675987768  0.6845365697256298
  0.2140718357859726  0.7004045414879272  0.3168191728789012
  0.1345986006184035  0.7771941440960433  0.0195503860845889
  0.0652242796870510  0.8005979520640096  0.6765555811079125
  0.9953038302728459  0.8343357169043273  0.3589431506052918
  0.9209015308152217  0.8914299962273873  0.9974732251521274
  0.4434620700474454  0.6614296722328064  0.6654520023427750
  0.3418473264640340  0.6839215139891124  0.3382953351162570
  0.2864990011316593  0.7523820659286571  0.0177975986529049
  0.2046475697029990  0.7985575169865697  0.6740134455627214
  0.1630303739096206  0.8117831172691155  0.3378348776716891
  0.0611611191024792  0.8881746147509730  0.0190220389056108
  0.9814891601179667  0.9156488518711470  0.6648067832887605
  0.9012092400656044  0.9355114022467461  0.3394211745756976
  0.8727884982291059  0.0343392556881170  0.9970175355184878
  0.8028598371257871  0.0671414857167321  0.6608562021162498
  0.7101191077303355  0.0852909613562218  0.3176235518059656
  0.6371325677121860  0.1088027465240273  0.9856527439352618
  0.6103980242227180  0.1543939107235417  0.6540298518968299
  0.5027128478211722  0.2000679639656795  0.3215439253584123
  0.0763133690034863  0.9477532114092995  0.3491659143077399
  0.1472713193956992  0.0255734835504029  0.0252128232624074
  0.2110803894954927  0.0401197417058654  0.6926945116988179
  0.2721192108921571  0.0721011416027295  0.3485305646352543
  0.3615333156651488  0.1088406270798643  0.9950094283880944
  0.4134965589170250  0.1765620129786285  0.6791728315310337
  0.8485604424460362  0.9603863345089039  0.6778673449524746
  0.7722462012895335  0.9487192904982180  0.3408053569505967
  0.7311712279101954  0.9981542354792907  0.9907697299345841
  0.6520270143265279  0.0450832071884406  0.6825087910147616
  0.5626433041380139  0.0804829954973840  0.3327877094611154
  0.4921687860432513  0.1123163507393343  0.9781044426643959
  0.1423939286608444  0.9358372586528674  0.6894218145329702
  0.2120680998314626  0.9511139615540856  0.3557302859997478
  0.2948813334135281  0.0005483987219108  0.0337862370425910
  0.3640197294961638  0.0320703016543078  0.6684603756196097
  0.4124161861396516  0.0701305293784600  0.3247742156647391
  0.7748598417603532  0.8997675908679597  0.0029540613170340
  0.7300126694023632  0.9183810615853574  0.6710019861931187
  0.6245309556347109  0.9463490935076351  0.3376046011464098
  0.5849638428360038  0.9927109308200741  0.9975527654681429
  0.5002131008117914  0.0472060916753634  0.6490748340891344
  0.2206759580781821  0.8490634356184046  0.9970309711760805
  0.2766997693067239  0.9266549961169019  0.6781043035619660
  0.3665228084720482  0.9258637453137410  0.3359798598639969
  0.4072556341383944  0.9977441729937695  0.9991258536711385
  0.7004149962834134  0.8329407130208253  0.3254179855557453
  0.6395156635738957  0.8621477659699011  0.9897435196789033
  0.5483420326356665  0.9200845027729088  0.6576816337428895
  0.4823628971506224  0.9480925292753568  0.3232465127496198
  0.2673568682491450  0.8059359075117598  0.3526927701192477
  0.3799780743161136  0.8636833395414456  0.9975101742871502
  0.4245303566630696  0.9376230901394109  0.6837814606185120
  0.6158306349247695  0.7878198534902765  0.6646054301624034
  0.5527892865419233  0.8288431281964463  0.3440681085085018
  0.5031849014197789  0.8728761360919393  0.0024667609806954
  0.3550009893789579  0.8001662281095818  0.6580070778585991
  0.4184061954879326  0.8067723870655854  0.3441798021558711
  0.5576904248849957  0.7567654547964153  0.9883271688996231
  0.4943768407587896  0.8208521422565056  0.6624010917171574
  0.4303407973956297  0.7217987729330346  0.9986473671744136
  0.5054161757566149  0.6937208373197166  0.3592318307687634
  0.9843875841894416  0.0122324525348105  0.7881533180019176
  0.9216712665596702  0.0271314174724608  0.4498811918881316
  0.8740900919435646  0.1118155966361414  0.1066780179411992
  0.7939493793406029  0.1211618964129855  0.7833093624974694
  0.7060952908919802  0.1451503882107374  0.4337719706463758
  0.6522130681126370  0.2144663219825915  0.1140446609216923
  0.5948233599474264  0.2596218590706982  0.7796200298876386
  0.4998258881132500  0.3003643889821603  0.4381114856397232
  0.4498088436938232  0.3340241277465026  0.0952420537202343
  0.3446124839454612  0.3561670757487008  0.7757069779460224
  0.2714185301858691  0.4122981476711232  0.4521623174549845
  0.2246326268492211  0.4564740580300821  0.0813331352308140
  0.0917523317025086  0.0389584942673054  0.4630652127664163
  0.9967222334623216  0.1034694239418315  0.1158935668359149
  0.9396627851996442  0.1377311150974023  0.7791555246917596
  0.8557418594817463  0.1800758158699125  0.4380488236586118
  0.7987928804977784  0.2133535687912058  0.0900332764865226
  0.7398399106411873  0.2571158291997833  0.7722613506285469
  0.6242979502731103  0.2718416239672337  0.4440485420085025
  0.5986511041679989  0.3639956531906705  0.1074910685908463
  0.4813430070632805  0.3764512773812925  0.7699348647519599
  0.4233891828853160  0.4178209561128980  0.4418730240350044
  0.3555633432452225  0.4358311449800993  0.1000261353212508
  0.2835191897073841  0.4878670102202491  0.7667030800635644
  0.1458266161422443  0.0933904453198835  0.1268960827379502
  0.0761969385275734  0.1269370568973542  0.7895773573123535
  0.9859633217388861  0.1569327156355413  0.4368749309871092
  0.9299716272973555  0.2088921227176712  0.1348574170015056
  0.8707214854718472  0.2797999050791091  0.7759011791406678
  0.7445999186657986  0.2763420085032635  0.4152369719598781
  0.7315673887289620  0.3458295317638829  0.1134948265095659
  0.6512848784534597  0.3756725846996147  0.7735364392363593
  0.5539566975117438  0.4186658522144171  0.4425847194050050
  0.4972621456494437  0.4760260109134933  0.0908109654052680
  0.4306538914078715  0.4763729246836235  0.7793017708642864
  0.3383597420271940  0.5080852113226157  0.4476793512573067
  0.2081005287589193  0.1118469690010073  0.7977192344629458
  0.1416792213413771  0.1554154648929824  0.4399013905935760
  0.0745142237937273  0.1932761326989123  0.1104428370865165
  0.0195916755475949  0.2754202773737902  0.7739019336528798
  0.9129129698416989  0.2872665055052650  0.4528927791630579
  0.8641114153892033  0.3418470163606671  0.1175967265711435
  0.7826117117944591  0.3851021793391354  0.7626600177430944
  0.7016079575382221  0.3991719344969979  0.4293718939893125
  0.6468415911644527  0.4575346987005275  0.1123534192064710
  0.5889384363120556  0.5056523267382076  0.7836618738775982
  0.4946700005473446  0.5325885014975427  0.4168575634251042
  0.4120018368191865  0.5957878006548967  0.1114240065804495
  0.2752691535780087  0.1781323711976697  0.4487195927701180
  0.2150714472501463  0.2194355219703539  0.1049301516345622
  0.1358238329393942  0.2216105499267655  0.7769433366493956
  0.0673091785036135  0.2893979370840327  0.4633624203821682
  0.0125735781583955  0.3361979344027262  0.1238850389529844
  0.9301978635523938  0.3713434685676305  0.7872538339297961
  0.8227039544042185  0.4206649258984214  0.4183847486897250
  0.7931046984535186  0.4675075633646202  0.1109932485799092
  0.7439236420643454  0.4891745665994165  0.7617810058440213
  0.6353615455428354  0.5376526681652294  0.4318767759245148
  0.5604841508168334  0.5647953793364024  0.0957386898532775
  0.5007610472268880  0.5990420865397326  0.7662428629259708
  0.3767386139678450  0.2074053848519242  0.1195954087587126
  0.3069669399778689  0.2226634178353351  0.7677067440989163
  0.2016108513288160  0.2869061428426392  0.4474690180574754
  0.1435682799621247  0.3202043973217386  0.1184236069301434
  0.0846837955496227  0.3665344140253168  0.7765220147887817
  0.0057395476757733  0.4301873539469128  0.4352222606943030
  0.9349080547244597  0.4785939843677340  0.1124465252386884
  0.8587942437785330  0.5037399641614968  0.7799353337381518
  0.7672628615228589  0.5274939611042058  0.4440019965288968
  0.7097479881737954  0.5905630317735771  0.0887634832452662
  0.6298965433764181  0.6336078781140273  0.7613659354099624
  0.5520829502773381  0.6584373416939187  0.4467555953196154
  0.4336146051726004  0.2433572909442248  0.7743421066911296
  0.3591526366599709  0.2895128714104018  0.4303940767345793
  0.2927747924731534  0.3393625825788078  0.1108003716575610
  0.2013716467944704  0.3646792932148486  0.7741580156156473
  0.1441455023561744  0.4315696278651870  0.4392611831027153
  0.0708673324347870  0.4652675120384657  0.0969163055602209
  0.9992290709905873  0.4937664117185321  0.7885324539303937
  0.9119408515382403  0.5405649520177036  0.4504356412277204
  0.8524126923565802  0.6015291304079682  0.1287070645082125
  0.7941429292536242  0.6331989001909903  0.7906042406859513
  0.7134365914712220  0.6504315445131823  0.4262964208042064
  0.6259970209268815  0.7115667626739395  0.1047433986640982
  0.1516253996951420  0.4958983929333840  0.7728059749443403
  0.0636817679229793  0.5418724726413870  0.4378684099688641
  0.0005969389020350  0.6222316407578461  0.0953760588795163
  0.9085178635281892  0.6256296654020872  0.7667927938054220
  0.8510537013663964  0.6617194688021897  0.4369723836470669
  0.7607093699042551  0.7364758306312282  0.1137185725421261
  0.7178364128902714  0.7331992311435158  0.7936632080550226
  0.2031621810508284  0.5208367600860413  0.4570653863214531
  0.1361656200338075  0.5656496919516982  0.1003309492125410
  0.0843840480451306  0.6249889198315230  0.7773741708763424
  0.0033910843678129  0.6512446418891997  0.4424675904273414
  0.9281712670987119  0.7401564831287288  0.1225484877456395
  0.8615406163618076  0.7556487586085154  0.7747915375770305
  0.7576478390720638  0.7803959587253146  0.4547132788982040
  0.2722149972675538  0.5952217926591103  0.1160380791807185
  0.2368100064961425  0.6477235820188696  0.7945348328832935
  0.1565656457586542  0.6777934036160360  0.4568031369103736
  0.0615504365103021  0.7224036218593923  0.1276859902757508
  0.9960752253107685  0.7500357808324196  0.7701946042902108
  0.9158229954526504  0.7995681906970660  0.4482600569329449
  0.8538788496009815  0.8531913268528584  0.1135746807750095
  0.3577813235475489  0.6150993413981070  0.7893714818499333
  0.2982349150427552  0.6472763970601463  0.4629659771837566
  0.2101077170244992  0.7006014294956557  0.1094081885246965
  0.1465339985329166  0.7770664529395646  0.7957125114662631
  0.0645258433818370  0.7922999698617375  0.4643690374370664
  0.0020065986667319  0.8356981887035175  0.1093042833210589
  0.9356031884346194  0.8800815934460999  0.7873459727049195
  0.4392243815785335  0.6467094795495072  0.4542436045184601
  0.3694814083542468  0.7126464320552159  0.1135880191039718
  0.3076770294568263  0.7642784800605185  0.7826692725761504
  0.2045752515265562  0.7708744479278096  0.4653746794830411
  0.1191105105593948  0.8400093083570184  0.1257551215961925
  0.0625791910434685  0.8833435169031461  0.7765129653794318
  0.9882083070971817  0.9272613294519800  0.4421763396683076
  0.9281062116072647  0.9834907491873253  0.1108023048797833
  0.8556953453986793  0.9963324665504132  0.7715018423534588
  0.7649906245010669  0.0240494449459305  0.4452796303234692
  0.7175357782655212  0.1024153018953982  0.1143049383513528
  0.6576913793094263  0.1479792738668735  0.7724374448219891
  0.5763786475801425  0.1563961459543250  0.4212308230298518
  0.5133099541112358  0.2183397792465627  0.0976100476738040
  0.0697407501983562  0.9715656478658872  0.1172635943549380
  0.1384111677920927  0.0211579196556784  0.7720409671709660
  0.2027916302225776  0.0389600931075833  0.4712943825015188
  0.2890091811820170  0.0835415193434272  0.1143963230449216
  0.3572205543390368  0.1055297905035317  0.7730653919199995
  0.4183951622644528  0.1698850549206199  0.4421405421118578
  0.8518207600976737  0.9121723725998976  0.4449570595556480
  0.7792701812180880  0.9739651867472929  0.1168179808185101
  0.7317148184610431  0.0019445757635523  0.7707201388440268
  0.6477489855777776  0.0249455632450548  0.4348091699934997
  0.5915595356746977  0.1011005880005911  0.0896686588889892
  0.5273227649911618  0.1303283964677107  0.7779995193860572
  0.1554975265697465  0.8988510620273615  0.4543245078659623
  0.2083668152470111  0.9620624253683090  0.1220880737974923
  0.2963227701910967  0.0001338414977639  0.7965388621163356
  0.3518698568001781  0.0596799903996654  0.4348949341739754
  0.4245694242522333  0.0783181637040968  0.1033503451721103
  0.7976818614442962  0.8807247917681309  0.7894704164028852
  0.7166928709094407  0.8918958544943365  0.4448006520156937
  0.6486998896644138  0.9461614903097768  0.1215659982859805
  0.5589963071915065  0.0017837426201837  0.7620808538218711
  0.4751938217353455  0.0296013900697929  0.4312035111518782
  0.2374969807442184  0.8867133003628638  0.7905799136962059
  0.2816602226149030  0.9200612705223747  0.4496962911762523
  0.3691243519735963  0.9450419842835700  0.1351016989444602
  0.4315230977045488  0.0056612425385083  0.7680782212116100
  0.7196894700750889  0.8352469619367398  0.1103224958333868
  0.6469978841269395  0.8810590223858199  0.7671166384585888
  0.5662579741199565  0.9172072549571197  0.4434794326515998
  0.5145435339711568  0.9629223884728759  0.1209395106867674
  0.2821881258590793  0.8268534306616360  0.1171110390477281
  0.3828075842857075  0.8681798419250271  0.7662779421454502
  0.4188316857089447  0.9118536375121025  0.4493354711179407
  0.6334462801983562  0.7773320568014412  0.4421973600685618
  0.5691516243611616  0.8347771413552039  0.1177200850118183
  0.5050778559609270  0.8592607955969598  0.7737021774051129
  0.3562585391347994  0.7659228703586223  0.4592519386054406
  0.4433674728024855  0.8354950293610202  0.1079687398526303
  0.5657464901918559  0.7225499500517856  0.7657112289677599
  0.4949652895095298  0.7844702554791780  0.4539129369560229
  0.4323912938635388  0.7311625163026250  0.7847904807431405
  0.4890938227130803  0.6959788898524835  0.1022728112901206
  0.0097384098922646  0.0172274446361911  0.2251227193447107
  0.9015617563529332  0.0568429869224119  0.8836231538782897
  0.8527097345066537  0.0897861508127633  0.5359928075864673
  0.7659965863529976  0.1484783208778353  0.2179090618984247
  0.7254672977647942  0.1847189736066568  0.8738552141875857
  0.6393998938586520  0.1875421035932519  0.5502216349487270
  0.5477821247198733  0.2400504646160897  0.1992807289311500
  0.5171813812907189  0.2804029675080741  0.8867413668212691
  0.4303145021151877  0.3442904466996026  0.5522690572473223
  0.3645965881530771  0.3563182021765172  0.2195739796643466
  0.2920003945782383  0.4157941266992751  0.8843605491746445
  0.2096760866057608  0.4320495157531354  0.5578319375718692
  0.0612300972649606  0.0246899788873378  0.8994278682876597
  0.0025256266319786  0.0762248580774525  0.5523227477681161
  0.9123693850336636  0.1387289319030458  0.2539894575005519
  0.8600407870259161  0.1866752620583298  0.8845126897585303
  0.8050983962014371  0.1992445141017285  0.5515454701274294
  0.6715151319105317  0.2511541573203928  0.2213903269983604
  0.6723995948097468  0.2940190507640921  0.8737183498921226
  0.5586551045741857  0.3180395512808545  0.5604390167224338
  0.4993844827874483  0.3751451801541847  0.2115021369232934
  0.4067810792709210  0.4037286558023467  0.8982474705322474
  0.3388108100438671  0.4610925281667875  0.5580765562891088
  0.2937132223377290  0.5024409895281821  0.2215423629324320
  0.1717438138560610  0.0886101819695284  0.5920267498697243
  0.0744786321214335  0.1124103493705064  0.2321450601413417
  0.9816362350788879  0.1727477729629001  0.8789209566629168
  0.9504040639527602  0.1930341694396773  0.5749007842275944
  0.8280100936577242  0.2792933134291289  0.2206652011386581
  0.7942907220985660  0.3050088850032182  0.8837904893562936
  0.7135983638696359  0.3033767043782944  0.5423926314474841
  0.6140401949607934  0.3865954804202403  0.2204443723810598
  0.5635473695035174  0.4123115091271146  0.8789195040546431
  0.4835977122246646  0.4538131229530080  0.5498951141888782
  0.4310258533662790  0.5073535470583437  0.2091571844463687
  0.3616176898560823  0.5375879355389230  0.8814547172086478
  0.1932983388470291  0.1124606504179653  0.2297403022355411
  0.1452993592513323  0.1508368016670190  0.9186331197271329
  0.0923275356361017  0.2037524319486366  0.5383732979332763
  0.0009555053747050  0.2577153469818896  0.2253720339530503
  0.9382496294761467  0.3093706963287346  0.9153307412048974
  0.8452087409811853  0.3258615884163447  0.5488808525298978
  0.7750332893473342  0.3809581095466825  0.2105563605982681
  0.7180653210238859  0.4412218085370156  0.8755423702536120
  0.6337496199043784  0.4412398309408516  0.5513223584535965
  0.5752120095861670  0.4809537937917767  0.2062902412974879
  0.5169946836352395  0.5392607568709735  0.8827148645796967
  0.4236401148492135  0.5777656086985274  0.5552823219338237
  0.2924006300250284  0.1513390798068457  0.8900552787862352
  0.2263914149671606  0.2079489582322722  0.5621125454882119
  0.1468789217600133  0.2477907661628862  0.2156496543972324
  0.0966191803260017  0.2978411623942918  0.8803792194760618
  0.0032177984387616  0.3098017520775400  0.5519194975947741
  0.9350238083077471  0.3795197120927938  0.2245328725296432
  0.8657121129219973  0.4165831396391795  0.8799303368173526
  0.7842748245036759  0.4530300496621535  0.5404469403926768
  0.7225800698880107  0.5240884763980773  0.2166179291395878
  0.6726646828328171  0.5662849008316684  0.8840632722230097
  0.5706298434214574  0.5726778155219634  0.5443995142181635
  0.5127283285201258  0.6135637259188442  0.2250863494442328
  0.3612612227664940  0.1791803194983430  0.5515718565220951
  0.2776043528625323  0.2253780874676039  0.2257586736605504
  0.2440949505647936  0.2830451258146738  0.8823858369616246
  0.1571741246835572  0.3150566231271554  0.5570837293230468
  0.0644215213887733  0.3866576957021621  0.2328204700197674
  0.0313464975233870  0.4234592359471065  0.9055065322153482
  0.9256742613021558  0.4519604530404564  0.5432298282106629
  0.8517073322329836  0.5000974848405164  0.2246058186156077
  0.7896732702326617  0.5604198036876369  0.8865386286998884
  0.7116645039844940  0.5520905886423080  0.5580176371536965
  0.6457040727317676  0.6218118946206417  0.1957438439641166
  0.5725046323898511  0.6723941750712896  0.8722573295779981
  0.4294726542490395  0.2283400620319682  0.2282559299406088
  0.3864346932240892  0.2696075943367546  0.8875083633717082
  0.2826424753819481  0.3189219933961240  0.5677280530397937
  0.2148766175215826  0.3624079484355747  0.2184532185200041
  0.1555753048929489  0.4283487793791636  0.8856562055615100
  0.0768809111970228  0.4495185255931347  0.5492923019943774
  0.0013659195112510  0.5100843309261549  0.2129939953402840
  0.9276770555227216  0.5382259117047354  0.8948072699319098
  0.8396348372001441  0.5830930824727218  0.5462319474769899
  0.7611224151554268  0.6278545611711124  0.2247648169920282
  0.7272952923792673  0.6807299608730943  0.8807016429589609
  0.6548157481003969  0.7102269510126504  0.5482361304548178
  0.1685556722165629  0.4895451210040562  0.2030176263872576
  0.0659038739661710  0.5505514713779007  0.8856643337941392
  0.9973110830224741  0.5601242896358443  0.5481175454236151
  0.9167027058435480  0.6274994507237608  0.2362888761127095
  0.8660752782745291  0.6629788554710530  0.8925260005254003
  0.7658316083756489  0.7025435549603856  0.5541538050757282
  0.7014651386487074  0.7601629718870839  0.2117551870561556
  0.2344756862622930  0.5546258703146165  0.8665156578511031
  0.1328892634338033  0.5673766456797438  0.5422308772927167
  0.0801777432735449  0.6260504180945290  0.2310679060994048
  0.9831891097049450  0.6741114708819325  0.9012835471548613
  0.9143104930446526  0.7129065552865441  0.5483908033057290
  0.8401545581578560  0.7583258627880127  0.2177074150635434
  0.8003723560686069  0.8178322350199920  0.8844842865940592
  0.2677496124175036  0.5882592429207492  0.5532691558679232
  0.2098914214236913  0.6168107540014276  0.2201224122858036
  0.1432299626019642  0.6679429713226384  0.8969084017002373
  0.0752712808736078  0.7209086140302148  0.5493854054426492
  0.9918484434454200  0.7673834930670935  0.2415897572382804
  0.9361040861660115  0.7778158883394752  0.8934651132844991
  0.8127413230169793  0.8233528980556528  0.5645822121161217
  0.3450925344917266  0.6315588124868015  0.2390973398276515
  0.2875528606012594  0.6804630420723186  0.8994306387083739
  0.2068137944804178  0.6911088707015693  0.5754788448038965
  0.1228542574999238  0.7565027048279305  0.2274394370443105
  0.0789407140061229  0.7894742645607238  0.8938061584045016
  0.9645906706631706  0.8450400328945378  0.5646773120932949
  0.9322466516368166  0.8749468512049177  0.2380808159240004
  0.4540981558724440  0.6745444063238750  0.8735888696528491
  0.3595053727257991  0.7206346727633175  0.5789540720834765
  0.2811957495514363  0.7564150991187901  0.2080074594212817
  0.2256241180865217  0.8013820081775691  0.9031131634819545
  0.1155591441274026  0.8285949243548600  0.5823382488598341
  0.0720073790424465  0.8675983448199318  0.2301905311300914
  0.9928107287296442  0.9052001436837500  0.9022622390752915
  0.9117472189973839  0.9694194245680876  0.5671246090705111
  0.8496960860659755  0.0140498437400893  0.2430286839532627
  0.7967461385463679  0.0561103581910487  0.8843468723487646
  0.7043513989421868  0.0844790197033518  0.5544383780571280
  0.6166031982771116  0.1246556988389429  0.2384059762363080
  0.5896729595554717  0.1694231780668431  0.8758148598424640
  0.5045210670568423  0.2097589271578286  0.5526326606460756
  0.0876568047427071  0.9682260917898873  0.5812832172710927
  0.1443291090285328  0.9804551618106530  0.2270265560737812
  0.2249083389380715  0.0387074979082414  0.9177005150665565
  0.2785632495387773  0.0718597535769376  0.5508021649160426
  0.3382463269341827  0.0971165816441371  0.2228394839859931
  0.4371026136640381  0.1631353715884032  0.8595965978045044
  0.8828005633890541  0.9409061912856487  0.8945949953273669
  0.7852203640756699  0.9730895670421944  0.5479316498925471
  0.7213874411457013  0.0139989654231059  0.2235067940552042
  0.6678531238917031  0.0546535864584143  0.8614527590082801
  0.5681958426515337  0.0572245886429883  0.5410790351545813
  0.4909533412478879  0.1263250468951256  0.1872028022893772
  0.1426823517928284  0.9299189148721183  0.9012892512155304
  0.2119886412505991  0.9534461989823200  0.5780702505996871
  0.2747291312527054  0.9844648416928408  0.2090541896530169
  0.3744763449036341  0.0297349036891035  0.8904035417285741
  0.4244157406079552  0.0668583497468589  0.5489979862447925
  0.7958213047274967  0.8878897487487123  0.2300998242916776
  0.7446741630376934  0.9184872005709650  0.8880051067384969
  0.6443649054424228  0.9637583142458936  0.5564604742402111
  0.5583689465546584  0.0144852889190474  0.2306260504816890
  0.5114294359268072  0.0615245677396814  0.8777261478103213
  0.2240398604832805  0.8677295876372213  0.2329034853124199
  0.2958487176582523  0.9184395178107252  0.9107149593243804
  0.3459988808474961  0.9504573608795894  0.5676074533920712