Li                                      
   1.00000000000000     
   -11.1791050000000016   19.3627778431472777   -0.0000000000000023
   -19.1641800000000018  -11.0644444817984429   -0.0000000000000019
     0.0000000000000000   -0.0000000000000001   23.4479499999999987
   Li
   504
Direct
  0.9843065173312482  0.9947622016997144  0.9966704650086697
  0.9374033265360637  0.0520890309579656  0.6598889335741518
  0.8529515730609702  0.0917041702194510  0.3382186093027357
  0.7791464679816968  0.1200193691592020  0.0104199446006987
  0.7186496790811034  0.1686755910942210  0.6760262718062791
  0.6534027285099739  0.2053936542393444  0.3389452527832901
  0.5811737421100958  0.2600923292156665  0.0072980887455003
  0.5133529013985552  0.2961521105109028  0.6624336903652548
  0.4402447835050936  0.3399788047020138  0.3293590620928484
  0.3603467616697245  0.3737492496357362  0.9888237035647052
  0.2772499510019344  0.4187942409487135  0.6385377979738109
  0.2203730814140599  0.4658573773414076  0.3235846498307922
  0.0855228218793584  0.0376769282230853  0.6513529933320399
  0.9981379167287585  0.0862249412397489  0.3325124447979491
  0.9238091447060555  0.1158546486920287  0.0064436878277192
  0.8663886346713170  0.1793124256922383  0.6557366776200055
  0.7959697191437414  0.2138051418256168  0.3388107348403580
  0.7164291535451142  0.2581591019004179  0.9905386560445564
  0.6578695480062180  0.3088448175990806  0.6727243042568745
  0.5846259514061032  0.3187503208332529  0.3461626521721541
  0.5039163713201162  0.3809182111519220  0.9810046144758928
  0.4207114806728214  0.4022202328955942  0.6809149989657968
  0.3566506971231860  0.4586565393633677  0.3104104026151546
  0.2938808770128105  0.4989381277143963  0.9816631031710656
  0.1254568962242004  0.0732403684444378  0.3292323576261467
  0.0697167526806908  0.1255859719290626  0.0002170424280195
  0.0046867534680288  0.1885916251502451  0.6689932403472341
  0.9354194895518333  0.2153357794204425  0.3477121181169380
  0.8525738449970106  0.2432081710005178  0.0024523602276503
  0.8003902565286438  0.3059572625225471  0.6641332551459698
  0.7362920010263210  0.3458738411905244  0.3540034084003096
  0.6457824593729811  0.3875034063294791  0.9872998001957498
  0.5645625842417559  0.4173289580712591  0.6631483805620562
  0.5101213076360622  0.4563262711579199  0.3288613985444329
  0.4385462603616759  0.4992850687094119  0.9666321738147658
  0.3591069860510387  0.5404914980292332  0.6424974805899879
  0.2145309718183483  0.1300253212133597  0.9899754178936746
  0.1521924363322356  0.1641091621992743  0.6579210033286529
  0.0679707945551584  0.2052556916463146  0.3506495173352064
  0.0120173703322308  0.2482554064526710  0.0034103168933726
  0.9360065184348301  0.2975359785669198  0.6528181265313151
  0.8720052530993954  0.3282399400887641  0.3233179774777781
  0.7825487093523833  0.3737215842543335  0.9877022639505810
  0.7182349337992235  0.4318897166688274  0.6550977160050238
  0.6486617032500703  0.4579849312565756  0.3569619698097313
  0.5911516406365180  0.4985610554900930  0.9915935009243881
  0.5009977459317341  0.5290550116658181  0.6559287118916615
  0.4353468033343333  0.5789599223191999  0.3049254442286014
  0.2794464928149338  0.1705717998338656  0.6843639405577022
  0.2125851897222972  0.2146173090969441  0.3396361089135738
  0.1412274884171509  0.2625069201029433  0.0009264971991172
  0.0801524849391697  0.3060202755794421  0.6775048496776890
  0.0069830494153109  0.3283884657400407  0.3364526451139653
  0.9363802860636241  0.3635741796499872  0.0287288765115932
  0.8581475582482625  0.4195343719819462  0.6668526267754729
  0.7975426664913812  0.4599608294908961  0.3307471574274103
  0.7133041290416031  0.5020576536282988  0.0141226183952128
  0.6410159876523593  0.5440144810451386  0.6731588160158992
  0.5739740828868634  0.5824886423592872  0.3244491637861699
  0.5085871380203457  0.6321772104217871  0.0161956972784409
  0.3591019689498296  0.2155554390223386  0.3535315650195443
  0.2942220217369425  0.2619515374876684  0.0204194106521030
  0.2174320601302000  0.3002510782844965  0.6687121215287490
  0.1479879799094519  0.3434190288264034  0.3427384368356314
  0.0808629104846972  0.3833619906036176  0.0042093423945389
  0.0124865662224991  0.4236066852382550  0.6757407888536093
  0.9368533931286720  0.4603714710782469  0.3472570373955932
  0.8558844749451993  0.4913142324230790  0.0011051895794765
  0.7775142925290268  0.5494575074340418  0.6622926353903011
  0.7167841525629726  0.5828197338035039  0.3386143991265769
  0.6532186080164308  0.6152051683416886  0.9945264426101232
  0.5609336428341081  0.6682491527800849  0.6593861987934986
  0.4369657225529266  0.2592255007091353  0.0084889506332075
  0.3687957848876735  0.2893110311624767  0.6784406568591308
  0.2925746672980978  0.3384473718121228  0.3290011293098090
  0.2143601932427330  0.3828526517659085  0.0045367667535956
  0.1344682692770931  0.4275387826968355  0.6501751206395454
  0.0796210641711426  0.4705608840774360  0.3276269481980307
  0.0146375291482315  0.4955265153380637  0.9945433941986366
  0.9252410522927832  0.5462791753212741  0.6775498830388145
  0.8586146913486203  0.5832006018974525  0.3267692442196477
  0.7896326099694093  0.6151243477011761  0.9751088892632396
  0.7144457164313138  0.6643310326460181  0.6765595819677230
  0.6328880216796264  0.7021332346284126  0.3473083408144433
  0.1644243765977862  0.5002782738136347  0.0005655078588944
  0.0578272228644039  0.5398544056536920  0.6556764420770236
  0.0078409455513224  0.5915875099473382  0.3519626449220539
  0.9269270237801450  0.6250644955236382  0.0036786729756741
  0.8557676665444731  0.6626997048709811  0.6622499800622208
  0.7671262456212062  0.7034928409117782  0.3313356937386871
  0.7274725988623914  0.7490613959321237  0.9944871223283940
  0.2039090345309731  0.5281040494573546  0.6387496143586091
  0.1413403157579083  0.5941916022187854  0.3472874127588952
  0.0791645794914899  0.6260575492185865  0.9861363543508048
  0.9891025366987165  0.6632493347734538  0.6255462132084020
  0.9159335187139490  0.7079981706119085  0.3301797184828530
  0.8668738414120014  0.7412592772089326  0.9651995176550585
  0.7955882576403823  0.7897138344072658  0.6428793523527645
  0.2944692414614707  0.5692131262820439  0.3314232809264794
  0.2308554700733012  0.6211677045522563  0.0223831413833651
  0.1349410213318549  0.6551648833252415  0.6747547120323958
  0.0585000883712468  0.7014490784154930  0.3243671967058930
  0.9975524152072168  0.7430200889051832  0.9820395522849523
  0.9285195813130613  0.7900632354708250  0.6680931573975570
  0.8408959134791374  0.8369836955792422  0.3282546201267067
  0.3565767775793276  0.6373667489492902  0.9952156529675307
  0.2738462352015461  0.6698478543213042  0.6681559019018692
  0.2086076037041238  0.7049885486565657  0.3237020890952067
  0.1388300093649804  0.7450997239724231  0.0019689158327267
  0.0769205189615008  0.7982275689267624  0.6586623832787097
  0.9962797396506531  0.8317730125198537  0.3466223226337490
  0.9135976895226818  0.8642611200201884  0.0136094281163182
  0.4332013549443516  0.6614319217902818  0.6829248800001722
  0.3603660225231735  0.7067919423518774  0.3230651208314583
  0.2834661257084932  0.7628637607641764  0.0111051691086033
  0.1979962787606482  0.7851889973964674  0.6788060696137634
  0.1404556311081464  0.8364618356747187  0.3310135414823066
  0.0629359169134887  0.8689128815609521  0.9750095616034642
  0.0029349771544460  0.9122898768545156  0.6665511684390353
  0.9258054142107142  0.9539259308235444  0.3504262176437578
  0.8461967970352831  0.9955124599789258  0.0189996916574771
  0.7955162518076904  0.0418950083872787  0.6885910879202655
  0.7229584166949365  0.0890666263379671  0.3537133945611473
  0.6422223208023823  0.1323071841532766  0.0084611452173888
  0.5686508777512671  0.1736649227504827  0.6725129663787257
  0.5032594505688834  0.1984554689972740  0.3252513264485799
  0.0613821993433632  0.9459946169577620  0.3228239739508112
  0.1382839960282070  0.9954047665269812  0.0137240398414349
  0.2108257727862650  0.0448117998952355  0.6605691593508141
  0.2663911943855126  0.0920826796079410  0.3339414942457637
  0.3659477081591263  0.1399122611027295  0.0138648896811873
  0.4269207936418979  0.1802088208936610  0.6511300868519427
  0.8523209501635449  0.9097963431997584  0.6666335726577373
  0.7907116428971150  0.9681558172241509  0.3492200205135205
  0.7056456271638751  0.9962103424797775  0.0035886382391652
  0.6436266412507265  0.0330840232486196  0.6792610364658742
  0.5650318476884593  0.0886999968872502  0.3326095351619216
  0.5095256525109733  0.1477327639578832  0.9955956695574670
  0.1568825789252273  0.9116586322777209  0.6650631074358344
  0.2111339529311707  0.9602090003912167  0.3294211613381961
  0.3036407096930915  0.0099757946369934  0.0117861279983984
  0.3624239228686505  0.0473040986746867  0.6777413884795891
  0.4212037739267345  0.0746046611374354  0.3356259421399344
  0.7676048702081175  0.8637282277369565  0.0072078821389496
  0.7108335321895609  0.9166421128444853  0.6629514725167880
  0.6501297868895080  0.9722504813007689  0.3240136229393187
  0.5666952066760516  0.0211057619773811  0.9842527862776933
  0.5154176544476172  0.0538918217255500  0.6627672039559940
  0.2074983776206523  0.8875202930284019  0.9985687328743040
  0.2885117365090792  0.9213105832773820  0.6555805185527959
  0.3473737556156493  0.9696575382681800  0.3178948842009675
  0.4378361671119038  0.0180179425917757  0.9988745783746538
  0.7106041126500031  0.8321850557265549  0.3381142777940056
  0.6395820490173847  0.8858668859256937  0.9845968099556686
  0.5751895460999279  0.9161110253215412  0.6747913220558743
  0.4878054593268430  0.9565679476300062  0.2992030002622812
  0.2791231366522808  0.8277290062728895  0.3195275958026187
  0.3675468888832114  0.8843225416767737  0.0026949720551244
  0.4308333233601545  0.9247062420963417  0.6588968161395741
  0.6314207313869389  0.7801869891980076  0.6506081815254632
  0.5626198388168007  0.8365556322672774  0.3329067828957335
  0.5006286201253332  0.8936230300286141  0.0112043786343818
  0.3484990229821676  0.7820243605353809  0.6580053748835155
  0.4125593191616517  0.8293868760554020  0.3428003590932249
  0.5681921616521279  0.7605759956707701  0.0014167387767401
  0.5058266130673985  0.7860069739861117  0.6631906315903962
  0.4304074635038049  0.7602274458237872  0.0188956719030884
  0.4893826819682019  0.7102530889970708  0.3095405828654521
  0.9777976934673873  0.0046665073053092  0.7642071178930365
  0.9248606059874760  0.0456231743441364  0.4475617250122070
  0.8649259495274109  0.0887205736435561  0.1167130346149676
  0.7885552274341947  0.1349604336952694  0.7664633897632811
  0.6980707749112511  0.1769298853295922  0.4418875223633592
  0.6213353518150271  0.2013893039956756  0.1134981552758347
  0.5562595559047452  0.2517760596742207  0.8196931855450060
  0.5061008385202825  0.3025128336090432  0.4634066628425941
  0.4408149394136700  0.3323041448538859  0.1137693039263539
  0.3449707181634523  0.3783743363778314  0.7935969434428145
  0.2788268435284209  0.4087127948796763  0.4447584019072011
  0.2032688556205855  0.4726541104178565  0.1319939606660725
  0.0629422225381333  0.0427490826799186  0.4432315298352307
  0.0120017142389699  0.0868484764984743  0.1529477122733525
  0.9223006364505295  0.1115230050830647  0.8122256525623754
  0.8294607172016626  0.1699321217514793  0.4506709337063555
  0.7835892528999295  0.2321777725402328  0.1260425802682121
  0.6900789281120367  0.2485214647508087  0.7685094786537832
  0.6339505646547750  0.3021955112566772  0.4686379888220529
  0.5845800633767553  0.3239261116627290  0.1011394761588988
  0.4979694496041631  0.3810209597323180  0.7684578114504674
  0.4262704994230688  0.4164772392321012  0.4313967613373464
  0.3809123446581708  0.4406568730449294  0.0936751745888245
  0.2727877186487646  0.5076852085774064  0.7586664774532537
  0.1599848949993685  0.0754315963630106  0.1196980149650599
  0.0613789039999304  0.1532339743938849  0.7651014502333879
  0.0121024699756873  0.1542681569147462  0.4575353508515647
  0.9369320755343722  0.2218445667768378  0.1232869623996962
  0.8630364413923317  0.2248182083892374  0.7693771400058438
  0.7938438037864444  0.2856588408098872  0.4494092715994356
  0.7296950539741900  0.3407741047956065  0.1245558545629777
  0.6380315684826883  0.3888063268356561  0.7695811693559591
  0.5656334021647282  0.3900715760180375  0.4528145419962115
  0.5256942868611603  0.4599474576673188  0.1005127075074768
  0.4241384054450137  0.5051936180414529  0.7543528176237189
  0.3601906512615685  0.5450914721907480  0.4380969671122656
  0.2124900864915915  0.1132066721170162  0.7687211453453315
  0.1398093456564666  0.1695520713604779  0.4559916474574521
  0.0741571380559662  0.2129198211023322  0.1220138886341857
  0.9840274947992285  0.2493641915674161  0.7794655357931077
  0.9274122043517039  0.2838783046950581  0.4576123038474549
  0.8572392019327992  0.3577091621701030  0.1287707125782873
  0.7932905770201657  0.3595250140617026  0.7903749581519932
  0.7236427342476119  0.4064145369830001  0.4439706204593605
  0.6262817656709387  0.4553648187388717  0.1226468876810145
  0.5637872598644691  0.5256856784017288  0.7729432069754480
  0.5015261588834292  0.5376320353699171  0.4328447292833673
  0.4288889437420949  0.5756330656760724  0.1291644327116046
  0.2992704013650993  0.1615657622578937  0.4443612934179768
  0.2159481238039191  0.2079586535632103  0.1137185950157686
  0.1359963968081033  0.2533940789775784  0.7606383082529575
  0.0617749300022723  0.2705621362947426  0.4560796163417251
  0.0021243417884804  0.3451534821782474  0.1286156329231360
  0.9250510283987126  0.3668168016149309  0.7761099089685857
  0.8463766331565239  0.4170482383486700  0.4353508856851036
  0.7646956175685773  0.4782710446343685  0.1191757283685817
  0.7019361107242617  0.4953131140973355  0.7731072857115464
  0.6314212291110124  0.5480880784118582  0.4378395667851578
  0.5588187421206285  0.5870400541982761  0.1107955718943430
  0.4850701407251137  0.6440296586897674  0.7728735155951796
  0.3564697530814982  0.2141473447326163  0.1062172577986544
  0.2733858447804209  0.2581541289888705  0.7683636138766943
  0.2225732423784024  0.2762490209996642  0.4598413183242016
  0.1375837981130346  0.3467377855246383  0.1005521037020287
  0.0839896102329973  0.3686022349141069  0.7716537808209267
  0.9854863639694287  0.4166658751440195  0.4421064984358978
  0.9354831727829804  0.4717377532316007  0.1315095532871737
  0.8513703197119682  0.4993253644067366  0.7373304118270454
  0.7726702465972792  0.5393054220380478  0.4470545680965685
  0.7171139880876751  0.5818818305922377  0.1055491286018579
  0.6450564453082492  0.6301408939475834  0.8000086574732563
  0.5662811818047047  0.6641953477310878  0.4269050893574899
  0.4105295063773085  0.2704160534189270  0.7634481999492522
  0.3726555532298690  0.2830172327545597  0.4372872865218511
  0.2843341508722546  0.3235596149855198  0.0999740437863466
  0.2102214106061169  0.3964207953372423  0.7858051356301914
  0.1447274290550098  0.3936014540780732  0.4292800701127391
  0.0862491770522595  0.4840848099720034  0.0979815698174065
  0.0079455460513813  0.4841434095489205  0.7776301838753525
  0.9312336375008741  0.5544925823513367  0.4599822513268776
  0.8300217921733406  0.5835546328100705  0.1029706187534529
  0.7789775605124589  0.6356932072432713  0.7567385097631174
  0.7279783466061218  0.6657340395239331  0.4523876168279131
  0.6392012726322491  0.6918957125799494  0.1022497570150023
  0.1672122146652271  0.5018050553154296  0.7825442650636845
  0.0709730935828219  0.5246542484292434  0.4374041901317582
  0.9795311146358756  0.5921713696447526  0.1190553310630591
  0.9418061165725504  0.6251533059694339  0.7634144302593597
  0.8626244864203372  0.6673432059569464  0.4303926347505893
  0.7585760740403202  0.7301263585405451  0.1008947080661642
  0.7048295969456078  0.7479615923372336  0.7806061224968488
  0.2095928400924194  0.5106248659404500  0.4313728692700209
  0.1285557026239985  0.6113168412119663  0.1165283400041375
  0.0712580178718483  0.6111761273437608  0.7886900466778570
  0.0084196560098349  0.6870391183657318  0.4430217375079692
  0.9029407426664520  0.7239086733141633  0.1020849033710860
  0.8646854733934717  0.7377504527174992  0.7525035608656623
  0.7746578054905768  0.7907166334980786  0.4485052654922939
  0.2872741803888630  0.5671099480198976  0.1217703121168370
  0.2141363884629470  0.6278939281019049  0.7846300252260860
  0.1580164711812699  0.6643401599721557  0.4594241180998750
  0.0659217335044673  0.7102603554846354  0.1008359114549435
  0.9984183481366884  0.7648024492701211  0.7648427628001571
  0.9301764207583929  0.7873869189194522  0.4394065442821216
  0.8440317713462449  0.8356306497217432  0.0779239895172097
  0.3449885721251533  0.6251668596523743  0.7772840491386219
  0.2928110129385573  0.6536446240435794  0.4376116897212796
  0.2121864410410836  0.7236052910182096  0.1151432091078348
  0.1118996889249715  0.7514591799931125  0.7823326120193883
  0.0893092764718091  0.8095010801843685  0.4312467017372512
  0.0137969614356734  0.8439921577354070  0.1258700888563808
  0.9157324419412873  0.8793237503317073  0.7584360236182732
  0.4296927317938213  0.6811927222317919  0.4256001023543661
  0.3523245754453654  0.7100378637132323  0.1082361626496109
  0.2752347591063256  0.7562045920201470  0.7712860318279411
  0.2219048634445926  0.7724123490565376  0.4436983732053363
  0.1426585991863405  0.8415693638101374  0.1043084397569913
  0.0734531517948227  0.8890421282572376  0.7752580067767099
  0.9949506916715904  0.9215461891915382  0.4289875865480752
  0.9146122881517584  0.9561154954953111  0.1151014455421446
  0.8434705649066956  0.9730058833980237  0.7755564217767414
  0.8028139255293922  0.0363619529270096  0.4616820963026598
  0.7283446136153486  0.0830520021315593  0.1243767557505038
  0.6549704247992381  0.1394929769640427  0.7858464684546007
  0.5541720861634332  0.1494912206371453  0.4608448239611533
  0.4839658691007145  0.1983351446765198  0.1266955047242959
  0.0846763400738055  0.9849508991931373  0.1178154755533001
  0.1371405707794437  0.0129605372886630  0.7913654762996316
  0.2014297425975471  0.0213658902900633  0.4549212430084495
  0.2969619583385068  0.0774655861470848  0.1240279162997169
  0.3604819398916206  0.1367408061992705  0.7980167259824427
  0.4467647438190312  0.1690719706530075  0.4573421139161411
  0.8651693153514017  0.8948593475384072  0.4253212016402301
  0.7970192637480622  0.9461321540257757  0.1147181757893563
  0.7226420869247221  0.0051965861753231  0.7718902786810773
  0.6420321031536744  0.0344187132177964  0.4715127953616403
  0.5662930676525164  0.0648058620791687  0.1130949908200947
  0.4889338373065257  0.1400516387707427  0.7687327732275122
  0.1493859569051850  0.9017906423458513  0.4474523973311122
  0.2180226619303411  0.9439936162101006  0.1188284233802932
  0.2907730483683437  0.9910623825866907  0.7795447324819449
  0.3669421712672687  0.0346670819453436  0.4312173217701343
  0.4258150339867299  0.0661749124921513  0.1142189867344499
  0.7657143856401945  0.8734566933162711  0.7822813917634619
  0.7286288938127470  0.9243713516588485  0.4411858520680880
  0.6719540204825520  0.9407513125974276  0.1020825854712228
  0.5759507016833396  0.0304387279319158  0.7930720898841912
  0.4987580713513324  0.0305956221850323  0.4339152467486471
  0.2155835073276648  0.8641011290499137  0.7875540113314798
  0.2810724576051058  0.9107938614553035  0.4401515663416191
  0.3806911897349821  0.9640089415449964  0.1030178314095664
  0.4256295157450936  0.0005139261051852  0.7738027584501026
  0.7244519667684344  0.8339884000275077  0.1014742627820340
  0.6498170954786033  0.8885026423697582  0.7727032367435100
  0.5824396087837442  0.9358578027991626  0.4579471007060292
  0.5124106304150473  0.9546688655332005  0.1090058657579860
  0.2868353457632367  0.8366372394749746  0.1283964261268054
  0.3517744672458036  0.8786902249060518  0.7559852059561720
  0.4304594991166439  0.9413600076354740  0.4230477730462567
  0.6412596886397637  0.7958046176997300  0.4321143396331024
  0.5715743717629209  0.8124096764251476  0.1017488543774618
  0.4861814418585197  0.8825725526692096  0.7730531999599108
  0.3746430567092816  0.8080924073728184  0.4313629472938985
  0.4412622880319930  0.8153073160213538  0.1209339929503415
  0.5619581399297644  0.7537889791329704  0.7697700698781773
  0.5163743371365399  0.7946424086939885  0.4337822564445943
  0.4220162035622721  0.7490245316353707  0.7730427683443537
  0.4824118582477155  0.6959538667140279  0.1055896071938065
  0.9864291689095523  0.9862669384078728  0.2364503395819284
  0.9385222228386425  0.0223618837880579  0.9096976665337451
  0.8543898034311326  0.0792599128433338  0.5901289494390767
  0.7800727385512118  0.1185144215979221  0.2294608500956343
  0.7036875950748254  0.1793230087309254  0.8700782917056742
  0.6619441408584805  0.1850450953397527  0.5553745355137636
  0.5607210698305352  0.2513594280920017  0.2272419721127008
  0.4903783304317741  0.2639069965100802  0.8804089551538610
  0.4484238992177296  0.3157661259775040  0.5422064717811139
  0.3712956265783518  0.3670572633131073  0.2280093743802780
  0.2679927786458407  0.4132468750698663  0.8629739380201684
  0.2142129290630521  0.4592756342116715  0.5386347100706033
  0.0646590005182546  0.0508061813242975  0.8896401804848608
  0.9989918122951735  0.0707253316453915  0.5464267972253438
  0.9043919246902092  0.1105590373674232  0.2410384477107783
  0.8520395470006221  0.1661330169058957  0.8903462379440441
  0.7927440661636780  0.2096582465949126  0.5566544725658318
  0.7124817904080842  0.2479436884040993  0.2355855543874839
  0.6449838321214543  0.2898130881369241  0.8872126083516889
  0.5702576011352747  0.3202178527784980  0.5775633456229627
  0.5150928087896176  0.3726820096552999  0.2084424757814674
  0.4459973800459238  0.4147207983196637  0.8495170776123260
  0.3704099095676199  0.4449021094512275  0.5480398401566049
  0.2816290329851725  0.5050498105950965  0.2277471953838202
  0.1534370799093665  0.0665872879924834  0.5585028264731022
  0.0716426688442908  0.1262221870442417  0.2227180286549597
  0.9897315274272245  0.1572888118918030  0.9197589000317734
  0.9351946604300920  0.2049518829197297  0.5507790011493512
  0.8497429093795432  0.2452164654600679  0.2243440164278780
  0.7809923871187792  0.2850182288101308  0.8987738548572466
  0.7342792886500291  0.3257757374881649  0.5630974183244177
  0.6305887229239318  0.3559957193377130  0.2170158841177994
  0.5898478323502232  0.4189724641562762  0.8645858337295991
  0.5219049010028414  0.4584334994596446  0.5688042208380679
  0.4300465982103461  0.5047453464595790  0.2048217524346470
  0.3696245769558359  0.5169070465644836  0.9184324318330610
  0.2140205605710150  0.1353513346888704  0.2282846150729583
  0.1335914970946632  0.1599424121914694  0.8876996598849800
  0.0844276323637985  0.1929704408382591  0.5719494557093512
  0.9986621731334324  0.2339792569790689  0.2536933505914192
  0.9034049932226083  0.2914554816976320  0.9061018383270181
  0.8827406554027064  0.3314480152808130  0.5576892947997578
  0.7738500934782877  0.3731638014643153  0.2499753893197507
  0.7223845729836285  0.4178598692057705  0.8853395930134624
  0.6491601769374071  0.4557276001476751  0.5389124140916408
  0.5482680731933982  0.5087498625886084  0.2285871647628070
  0.5106501007547877  0.5480786031753837  0.9040191389865626
  0.4316718900661130  0.5681479977438357  0.5395100313673495
  0.2713427541133839  0.1669272126841506  0.8759465501248513
  0.2238819494533573  0.1914902400966909  0.5582542482391872
  0.1363471876054092  0.2521537062010708  0.2289692621316561
  0.0441310255500937  0.2861209063793950  0.8964788849345027
  0.9872203033181961  0.3267081597581551  0.5697806998053139
  0.9110855185653506  0.3749215298530117  0.2338894730669452
  0.8587036083403063  0.3977490400572776  0.8935208660032146
  0.7976000163169417  0.4387423870779372  0.5724007680842007
  0.6874023430462586  0.4926502036528504  0.2263381216694853
  0.6448964089463871  0.5353644205108381  0.8841737047375133
  0.5922495268127363  0.5855604170676827  0.5469875157529742
  0.4875087008110626  0.6370170289164250  0.2172998509464605
  0.3530797242942683  0.2134998287817851  0.5551001418034431
  0.2907588206658787  0.2524726022245645  0.2211614776558264
  0.1880586859342515  0.2985597950853602  0.8987738314010372
  0.1573356260549232  0.3147216889056139  0.5588271247593042
  0.0601734991109382  0.3905697961103130  0.2300979437434805
  0.9977067949994449  0.4087579906621457  0.9238793395584679
  0.9331142552624598  0.4780201017431551  0.5550554884328918
  0.8444585404232328  0.5075292252766346  0.2361815834646492
  0.8066783198179976  0.5398468831711583  0.8649434031546477
  0.7187056421212787  0.5684724383007165  0.5509333677357731
  0.6213064797421382  0.6255788296594105  0.2270382758407479
  0.5750345907779675  0.6435283122503037  0.8754599024648186
  0.4238590613534043  0.2585319250773495  0.2210359745734678
  0.3495603382803409  0.2611736095428370  0.8737804383752135
  0.2994788605516163  0.3302197350793605  0.5485363863365436
  0.2136277158918176  0.3879875660286629  0.2267170119349444
  0.1388624943807599  0.4182470486478209  0.8908685138786154
  0.0865493422073200  0.4180400338435248  0.5620444789416581
  0.9931965977555137  0.4975536364221398  0.2209873498536155
  0.9365820308131276  0.5352331112746214  0.8863972138289284
  0.8562180127462753  0.5890309845043262  0.5736388839962530
  0.7683072459085949  0.6196698739902757  0.2120742290903905
  0.7269335153130925  0.6585320876915048  0.8751732262308636
  0.6431327053699647  0.7044049225030804  0.5402976720779407
  0.1304332634227379  0.5209855173925817  0.2379259641034750
  0.0475088851804202  0.5474385595488656  0.8718402282502282
  0.0260453998761605  0.5813806888694089  0.5645492859716938
  0.9189815325732269  0.6136352682088670  0.2237378389155538
  0.8648402486349482  0.6810062878914636  0.8644550483091251
  0.7802299370269168  0.7011537895090072  0.5501599764584952
  0.7018478471999074  0.7633516394715727  0.2107228324864252
  0.2163845826193196  0.5635428920265539  0.9046622822037733
  0.1484297470839522  0.5772261678936985  0.5439573067155123
  0.0630812460177879  0.6379306945163492  0.2132253194842164
  0.9893333039085519  0.6774537979506263  0.8613725310741458
  0.9448206838494357  0.6953820669120887  0.5501603428018242
  0.8419521958340965  0.7318041412567666  0.2081159559790962
  0.7892522346110979  0.8145734181059652  0.8754376472143619
  0.2732532800450471  0.5722979094739244  0.5307231404024648
  0.2058844090139260  0.6402102215576306  0.2292575227258666
  0.1357579933670223  0.6758011356374638  0.9092725705232212
  0.0711419778886366  0.7167535610328883  0.5487397508097729
  0.9946714263822685  0.7228466417020130  0.2495956755281412
  0.9264664162068641  0.7979282982235461  0.8917385771464055
  0.8557803419829710  0.8229478099264611  0.5565003929981103
  0.3429649334527909  0.6378028111619329  0.2306450649203882
  0.3045419618085745  0.6646016094628564  0.8864584051057776
  0.2179846870181734  0.7146705684997556  0.5614231064975854
  0.1487801066993342  0.7518787135842473  0.2292145965852015
  0.0563647106139484  0.7993945095356025  0.8701739474026482
  0.9996868819602156  0.8244412408693762  0.5481318806121678
  0.9142641594056826  0.8591441399667019  0.2210212155007127
  0.4383872903419714  0.6654252939912695  0.9287979448096735
  0.3687345098715014  0.6953251950786807  0.5590436852688612
  0.2885250101096304  0.7546219330468773  0.2184875999820903
  0.1881785418687656  0.8091030350216997  0.8810749340560662
  0.1268239769063442  0.8233332965796833  0.5515441959744862
  0.0754247090807851  0.8756176292224040  0.2463607935874990
  0.9989693507235131  0.9257294586295899  0.8684149091924880
  0.9034467307653458  0.9536537318511620  0.5491580082693801
  0.8677989109013495  0.0057081631537699  0.2509322252051902
  0.8071376148497649  0.0354904908086269  0.8715351879375390
  0.7301199233822189  0.0889108239391518  0.5581276277883589
  0.6345910453557480  0.1368342147646473  0.2279296147424432
  0.5675857844845709  0.1396744503933718  0.9043486215212866
  0.5270072283297793  0.1917248694565785  0.5641755837930376
  0.0690586526663211  0.9732166813651659  0.5712536063920268
  0.1443592179552127  0.9760453076917912  0.2379660034246029
  0.2276679307730731  0.0528152160309006  0.8972300998594775
  0.2828060579025689  0.0665002271984036  0.5653911595683212
  0.3578948164324061  0.1390092891084507  0.2477148364782451
  0.4346846628485252  0.1561438173783998  0.8871569949611811
  0.8581423815625016  0.9117469456852731  0.8884010017933335
  0.7690704510172708  0.9595318315566104  0.5552740533820639
  0.7183761413700864  0.9994742486309889  0.2098988158879536
  0.6453843646582698  0.0329720797929767  0.9008025716533865
  0.5651627820424849  0.0706338203593830  0.5690905264639312
  0.5081571081301206  0.1429368520707399  0.2289893747641045
  0.1261603891270653  0.9267093448875769  0.8868050725116703
  0.2072003672786451  0.9426821308375040  0.5612194413584106
  0.2670924671115031  0.0025252640839000  0.2116431717911382
  0.3666123511993220  0.0112243530193226  0.8846803315428460
  0.4278345610748175  0.0816991897965735  0.5554981015397971
  0.7926432559355021  0.8592488551221678  0.2121749743580992
  0.7141214764765849  0.9163095452930037  0.8965144125605846
  0.6762629671139280  0.9784378143506203  0.5873756264406893
  0.5967112275592967  0.0137190191511323  0.2144246362688449
  0.4913277286994600  0.0350100693824231  0.8808061732475565
  0.2311201507288274  0.8520339334835398  0.2346755622559726
  0.2727426042255274  0.9128879231665223  0.8802111886113693
  0.3394665559884089  0.9617288799529717  0.5421278359088930