Li 
 1.0000000000000000
   -11.1791050000000016   19.3627778431472777   -0.0000000000000023
   -19.1641800000000018  -11.0644444817984429   -0.0000000000000019
     0.0000000000000000   -0.0000000000000001   23.4479499999999987
 Li 
 504
Cartesian
  0.2758172000000000 -0.2459160900000000 -0.0780707700000000
 -11.4775737800000002 17.5743961700000000 15.4730427200000005
 -11.2926704200000003 15.5008561199999999  7.9305330400000003
 -11.0102329700000006 13.7584923200000002  0.2443263400000000
 -11.2663896099999992 12.0487523700000008 15.8514302199999992
 -11.2406586700000002 10.3791251899999999  7.9475713399999997
 -11.4814585000000005  8.3753609200000003  0.1711252200000000
 -11.4143383400000005  6.6631796000000003 15.5327120500000007
 -11.4369576700000000  4.7626853300000001  7.7227948199999998
 -11.1909521800000000  2.8419864700000002 -0.2620612400000000
 -11.1252545299999994  0.7346035800000000 14.9724023600000002
 -11.3913484500000006 -0.8874180699999999  7.5873966900000003
 -1.6781160399999999  1.2390851199999999 15.2728924199999998
 -1.6316138700000000 -0.9900861800000000  7.7967351799999998
 -12.5476187699999997 16.6056439100000013  0.1510912700000000
 -13.1218251200000005 14.7916982800000003 15.3756808300000003
 -12.9956292900000001 13.0465497199999998  7.9444171700000004
 -12.9564442300000007 11.0156714900000008 -0.2218491200000000
 -13.2731504299999994  9.3209855699999995 15.7740058500000000
 -12.6441834199999992  7.7931871900000003  8.1168045600000003
 -12.9333191900000006  5.5425723500000004 -0.4454028500000000
 -12.4113987600000009  3.6957995000000001 15.9660608499999999
 -12.7768120700000001  1.8309683999999999  7.2784876000000001
 -12.8470652699999999  0.1698769200000000 -0.4299626400000000
 -2.8060874199999999  1.6188300200000001  7.7198238600000000
 -3.1861230699999998 -0.0396290200000000  0.0050892000000000
 -3.6665975600000000 -1.9959130000000000 15.6865200500000004
 -14.5838863300000003 15.7297489899999992  8.1531363599999995
 -14.1918977000000002 13.8172346499999996  0.0575028200000000
 -14.8110667700000000 12.1125315800000006 15.5725633600000002
 -14.8594741399999997 10.4297565300000006  8.3006542200000002
 -14.6454549499999995  8.2166323699999992 -0.2977936500000000
 -14.3090716800000006  6.3139868100000003 15.5494700699999999
 -14.4478184600000006  4.8283688600000003  7.7111256299999997
 -14.4709436199999999  2.9671618899999999 -0.7824071200000000
 -14.3725710600000003  0.9730706200000000 15.0652488000000009
 -4.8900929199999998  2.7152576000000002 -0.2350559000000000
 -4.8463927499999997  1.1310916200000001 15.4268987899999992
 -4.6934096700000003 -0.9549368100000000  8.2220123500000000
 -4.8919547400000001 -2.5141184900000000  0.0799649400000000
 -16.1657481999999995 14.8316159600000006 15.3072467900000007
 -16.0386875800000013 13.2526513999999995  7.5811437699999997
 -15.9102619000000001 11.0172950899999993 -0.2883567000000000
 -16.3060360099999997  9.1284036700000009 15.3606984900000008
 -16.0283629500000018  7.4925436100000002  8.3700264200000003
 -16.1630600700000002  5.9300367700000001 -0.1971151700000000
 -15.7396118800000000  3.8470082500000000 15.3801836400000003
 -15.9620797900000007  2.0236535199999999  7.1498765700000000
 -6.3928303599999996  3.5235781500000001 16.0469314599999997
 -6.4894768999999997  1.7416185000000000  7.9637704999999999
 -6.6095267900000003 -0.1699367600000000  0.0217244600000000
 -6.7606606899999999 -1.8339695899999999 15.8860998400000000
 -17.5504649099999988 15.8645531299999991  7.8891248000000003
 -17.4354945599999986 14.1081771299999996  0.6736332600000000
 -17.6333538800000014 11.9742057600000003 15.6363270500000002
 -17.7305853400000011 10.3534304099999996  7.7553428100000001
 -17.5956249999999983  8.2565603500000009  0.3311464500000000
 -17.5915764699999997  6.3926321399999999 15.7841942599999996
 -17.5794337300000016  4.6688194100000002  7.6076677699999999
 -17.8007068699999991  2.8529701200000002  0.3797559000000000
 -8.1453818499999997  4.5682104600000004  8.2895904599999994
 -8.3092252900000005  2.7986073999999999  0.4787933200000000
 -8.1847615400000002  0.8879772900000000 15.6799283900000006
 -8.2357172500000004 -0.9342824000000000  8.0365137299999994
 -8.2507931600000006 -2.6759568900000001  0.0987004500000000
 -19.4367683999999983 14.9175798000000004 15.8447362300000005
 -19.2958241900000012 13.0463295400000003  8.1424656500000001
 -18.9836567999999986 11.1361819000000004  0.0259144300000000
 -19.2218164899999984  8.9753944299999997 15.5294045999999994
 -19.1822675899999986  7.4303557199999997  7.9398134999999996
 -19.0923019899999993  5.8412233599999999 -0.1283437000000000
 -19.0771831399999989  3.4674278599999999 15.4612546200000001
 -9.8527298499999993  5.5926840499999999  0.1990484900000000
 -9.6672154799999994  3.9398450100000000 15.9080425999999999
 -9.7567892799999996  1.9203261300000001  7.7144020299999996
 -9.7334122399999998 -0.0854431100000000  0.1063778800000000
 -9.6966650899999998 -2.1267999000000000 15.2452737200000001
 -9.9080057200000002 -3.6648098000000000  7.6821802999999997
 -20.8390988099999994 14.1634754500000000 -0.1279462200000000
 -20.8123593199999988 11.8709613399999991 15.8871557800000005
 -20.7751051000000011 10.1723748399999998  7.6620689000000004
 -20.6157395799999996  8.4834716100000005 -0.5836455200000000
 -20.7182231700000017  6.4831998600000000 15.8639352500000008
 -20.5309293400000001  4.4857559699999996  8.1436686100000006
 -11.4255402600000000 -2.3515885100000000  0.0132600000000000
 -10.9923236000000006 -4.8534934300000003 15.3742684300000008
 -22.6040492800000017 12.9690131700000002  8.2528024999999996
 -22.3410630300000008 11.0318906299999995  0.0862573400000000
 -22.2668130300000016  9.2376351200000002 15.5284044199999993
 -22.0576482799999987  7.0699375900000003  7.7691427800000001
 -22.4876399900000017  5.7979420900000003 -0.1292656800000000
 -12.4002015700000001 -1.8949326000000000 14.9773690199999994
 -12.9672530500000001 -3.8376588599999999  8.1431778900000005
 -12.8828687100000003 -5.3941328300000002 -0.3250740700000000
 -23.7679107499999986 11.8132872399999993 14.6677763300000006
 -23.8075213599999991  9.9014107899999999  7.7420375300000002
 -23.8964999099999993  8.5834634899999998 -0.8159999700000000
 -24.0281827399999983  6.6670538099999996 15.0742029100000003
 -14.2004053799999994 -0.5962845300000000  7.7711965200000002
 -14.4849272399999993 -2.4028724000000001  0.5248387799999999
 -14.0642175999999992 -4.6362024599999998 15.8216147500000002
 -14.0966750300000001 -6.6284201700000001  7.6057458100000002
 -25.3911139199999987 11.0942812800000006 -0.4211356800000000
 -25.5209319500000014  9.2371075699999992 15.6654149500000006
 -25.4405699100000007  7.0213211299999996  7.6968979199999996
 -16.2008203399999999 -0.1477920800000000 -0.1121831300000000
 -15.8984406699999994 -2.1090705800000000 15.6668861800000006
 -15.8425737499999997 -3.7610839700000001  7.5901503999999997
 -15.8312204800000007 -5.5559798999999996  0.0461670400000000
 -16.1572793700000013 -7.3425497000000002 15.4442826300000000
 -27.0777635500000002 10.0876369500000003  8.1275828899999993
 -26.7760601700000009  8.1272199199999999  0.3191131900000000
 -17.5186038400000008  1.0696048199999999 16.0131884400000004
 -17.5736576100000015 -0.8425729700000000  7.5752148000000004
 -17.7885560100000006 -2.9519721099999998  0.2603934500000000
 -17.2609244699999991 -4.8539221100000001 15.9166107799999992
 -17.6002734300000014 -6.5353743599999996  7.7615889700000000
 -17.3555700900000005 -8.3954241599999992 -0.5859745500000000
 -28.6952028299999995  9.3256264600000005 15.6292584699999999
 -28.6308841799999989  7.3715040600000004  8.2167764299999995
 -9.3737228199999993 16.4343727299999998  0.4455038200000000
 -9.6960431899999993 14.9398594599999992 16.1460493999999990
 -9.7889169099999993 13.0130104699999993  8.2938539900000006
 -9.7150294499999994 10.9713026300000003  0.1983965100000000
 -9.6851537099999998  9.0891547199999998 15.7690504100000002
 -9.4292265700000009  7.5487014200000004  7.6264768399999996
 -18.8154091699999988 -9.2783750299999994  7.5695604000000003
 -1.4578274300000000  2.7284060000000001  0.3218006000000000
 -3.2156248500000002  3.5863549300000002 15.4889926199999994
 -4.7427041799999996  4.1392298199999997  7.8302434600000002
 -6.7722716099999998  5.5377127300000000  0.3251032400000000
 -8.2261466599999995  6.2724619900000000 15.2676657200000001
 -26.9636862800000010  6.4369100799999996 15.6311906799999996
 -27.3933608299999989  4.5982675899999998  8.1884935799999994
 -7.8158608799999998 13.7051899699999993  0.0841462100000000
 -7.8291979800000000 12.0963433299999998 15.9272788199999997
 -8.0164130599999996  9.9591699499999997  7.7990117500000000
 -8.5272180500000001  8.2312510499999991 -0.1032725200000000
 -19.2249969500000013 -7.0493138000000002 15.5943664900000005
 -20.7619067500000014 -6.5360393500000002  7.7242509200000002
 -3.5856093000000002  5.7689509799999996  0.2763605400000000
 -4.9581193499999996  6.4941403299999996 15.8916461899999995
 -6.1384183700000001  7.3302159700000002  7.8697403100000001
 -25.1337786700000017  5.3062895499999998  0.1690100600000000
 -25.5131771399999998  3.6215760000000001 15.5448529799999999
 -25.9002523800000013  1.8309071600000000  7.5974552299999996
 -6.7396198399999996 10.7392698600000003 -0.3692398800000000
 -6.7947006500000002  9.3836344700000005 15.5405322600000009
 -19.3282448000000002 -5.8021740199999998 -0.0335602800000000
 -20.8814648500000004 -4.6074011400000003 15.3720192200000003
 -22.4660192899999984 -4.0026011400000003  7.4539833499999997
 -5.2399155799999999  8.2783659099999998 -0.0263888300000000
 -23.8920621900000008  4.5516042199999998  7.9280866799999998
 -24.1268673400000004  2.5824601500000002 -0.3611732300000000
 -23.9866209200000000  1.0010078200000001 15.8224731799999994
 -23.7850687799999996 -1.1386242099999999  7.0156969900000004
 -18.9830945200000016 -3.7537623500000001  7.4922670900000004
 -21.0561616299999983 -2.6678089100000002  0.0631915700000000
 -22.5375678300000004 -1.8892309500000000 15.4497795999999994
 -22.0103625500000000  3.5937237199999998 15.2554281100000004
 -22.3214889700000008  1.6378596000000001  7.8059816000000000
 -22.7221325100000016 -0.1938816500000000  0.2627197100000000
 -18.8827627800000002 -1.9047559599999999 15.4288771300000001
 -20.5065633299999988 -1.1884106000000001  8.0379656799999992
 -20.9276951199999992  2.5864277200000001  0.0332196200000000
 -20.7178679499999987  1.0974778100000000 15.5504607700000008
 -19.3807058400000010 -0.0776102700000000  0.4430647700000000
 -19.0822784299999988  1.6172522800000000  7.2580921099999998
  0.1587721300000000 -0.4815306400000000 17.9190902899999998
 -11.2134445500000002 17.4030753699999998 10.4944049499999998
 -11.3693550499999994 15.7657251499999997  2.7366814000000002
 -11.4017477300000003 13.7753574600000004 17.9719952399999983
 -11.1945226600000005 11.5589584399999996 10.3613565300000001
 -10.8054340100000008  9.8025176100000007  2.6612990700000001
 -11.0435657099999993  7.9849679699999996 19.2201248299999996
 -11.4551648099999994  6.4523816500000004 10.8659362599999998
 -11.2962529400000005  4.8586409799999997  2.6676569500000000
 -11.1076977699999997  2.4930895400000002 18.6082214499999985
 -10.9496801300000008  0.8766822000000000 10.4286727700000004
 -11.3303923300000005 -1.2938054699999999  3.0949877899999998
 -1.5228888300000001  0.7457414200000000 10.3928707500000002
 -1.7985482600000000 -0.7285436199999999  3.5863103100000000
 -12.4477425999999998 16.6243622299999991 19.0450264900000015
 -12.5292382199999999 14.1804590699999995 10.5673095200000002
 -13.2093231600000003 12.6035465500000008  2.9554401200000000
 -12.4771748799999997 10.6120930300000005 18.0199718299999994
 -12.8783291000000002  8.9314184900000004 10.9886001300000000
 -12.7428602200000007  7.7350314200000003  2.3715133800000001
 -12.8688070200000002  5.4262865700000003 18.0187603400000000
 -12.7467674500000001  3.6456916900000000 10.1153696899999996
 -12.7030867300000008  2.4998976000000002  2.1964908099999998
 -12.7788932699999993 -0.3353268100000000 17.7891736300000005
 -3.2340726300000000  2.2631432700000000  2.8066730700000000
 -3.6227646800000000 -0.5069827200000000 17.9400605499999983
 -3.0917175100000001 -1.4725540200000000 10.7282660300000003
 -14.7255312600000003 15.6870207399999995  2.8908265300000000
 -13.9564316099999992 14.2232942999999992 18.0403167099999990
 -14.3488806800000006 12.2103648299999996 10.5377261299999994
 -14.6879939099999994 10.3584470599999996  2.9205794500000000
 -14.5837763299999992  8.0521375000000006 18.0451007799999985
 -13.7986770900000000  6.6363086100000004 10.6175727400000000
 -14.6913075000000006  5.0898385800000003  2.3568169399999999
 -14.4231092000000007  2.6228109800000001 17.6880271499999999
 -14.4728402000000003  0.9431572300000000 10.2724757800000006
 -4.5449620299999998  2.8618294000000000 18.0249349800000012
 -4.8122697700000003  0.8310978200000000 10.6920693500000006
 -4.9094442100000002 -0.9199513499999999  2.8609755600000000
 -15.7794069399999994 16.2944295200000013 18.2768689100000010
 -15.8079333399999999 14.8163207400000001 10.7300704200000006
 -16.4383698199999984 12.6406790600000001  3.0194092299999999
 -15.7582807400000000 11.3823646499999995 18.5326725000000003
 -15.8782794500000008  9.5149824200000008 10.4102009100000004
 -15.7279629700000001  7.0881959400000003  2.8758180900000001
 -16.3769719400000007  5.1000674600000000 18.1239336699999996
 -15.9098906899999992  3.7623397900000000 10.1493215699999997
 -15.8261302199999996  1.9354212399999999  3.0286411599999998
 -6.4418505899999996  4.0070708899999996 10.4193613900000006
 -6.3994638200000002  1.8804085699999999  2.6664679300000000
 -6.3764077400000003 -0.1703967000000000 17.8354090200000002
 -5.8756899100000002 -1.7974854899999999 10.6941320399999995
 -17.8174366999999982 15.5849794599999996  3.0157729299999998
 -17.3709857899999989 13.8529334199999994 18.1981863399999995
 -17.4541207599999986 11.7737956399999995 10.2080857999999992
 -17.7142849899999995  9.5148279400000000  2.7944265200000000
 -17.3392871600000014  8.1110685199999999 18.1277809800000007
 -17.5623828099999990  6.1617788700000000 10.2664402700000004
 -17.4972346600000002  4.3250110700000004  2.5979290300000000
 -17.7649503399999986  2.2664749700000000 18.1222995500000010
 -8.0889710600000004  4.5328232300000000  2.4905769499999999
 -8.0035212599999994  2.4371773499999998 18.0165515999999997
 -7.7822556100000000  1.2530942899999999 10.7823362399999993
 -8.1830090599999998 -1.1724564600000000  2.3577406999999999
 -8.0028882499999998 -2.4521068000000001 18.0936992699999983
 -19.0019153699999990 14.4715770900000003 10.3664910700000004
 -19.4983318300000015 12.8940366700000002  3.0836294299999998
 -19.0867193600000000 10.9601365899999994 17.2888866300000004
 -18.9731079999999999  8.9939274299999994 10.4825131599999999
 -19.1679807099999984  7.4471196300000004  2.4749106900000002
 -19.2872872499999986  5.5179257100000001 18.7585629999999988
 -19.0592759899999997  3.6158241699999998 10.0100491900000002
 -9.7716543799999993  4.9569882200000004 17.9012952200000015
 -9.5897487500000000  4.0842182300000003 10.2534904299999994
 -9.3793560300000003  1.9254916000000000  2.3441863800000000
 -9.9471667000000004 -0.3157054100000000 18.4255195299999990
 -9.1609722399999995 -1.5526563799999999 10.0657376200000002
 -10.2412770399999999 -3.6861058500000001  2.2974669500000000
 -20.5461405399999997 14.1598478100000005 18.2338336699999992
 -21.0367542699999994 11.8961176500000008 10.7856408300000002
 -20.4622467899999982  9.6148197300000007  2.4144499200000000
 -20.8908109899999985  8.0495772500000005 17.7439667400000012
 -20.8963933399999995  6.7297056800000004 10.6075622200000002
 -20.4053121200000014  4.7212705399999999  2.3975471900000001
 -11.4859653099999992 -2.3145012100000000 18.3490588000000017
 -10.8479841199999996 -4.4307715600000002 10.2562315799999997
 -22.2987599000000003 12.4143961199999993  2.7916034500000002
 -22.5090999499999995 11.3190085600000003 17.9005033900000008
 -22.4324550299999999  9.3190244399999997 10.0918249800000002
 -22.4724745400000003  6.6096974399999997  2.3657740700000001
 -22.2134346600000008  5.3716793899999997 18.3036133300000010
 -12.1287672099999995 -1.5914808800000000 10.1148094700000009
 -13.1525236799999998 -4.2746857399999998  2.7323506900000001
 -12.5092901800000007 -5.3825711600000004 18.4931647800000007
 -24.4397705499999987 11.9240995900000009 10.3879515500000004
 -23.9671854899999985  9.4737936800000000  2.3936817100000001
 -23.8047921699999989  8.5799137999999999 17.6446658700000008
 -23.8134168399999986  6.2506867000000002 10.5165290400000000
 -14.0796653500000009 -0.7123304000000000  2.8552641900000002
 -14.4269254300000007 -2.8010221899999999 18.3979655999999991
 -14.4980171299999991 -4.2909169900000004 10.7725537500000002
 -14.3485032799999992 -6.5822083899999999  2.3643954100000002
 -25.8182353499999984 10.8700384299999993 17.9339948599999985
 -25.4881645200000015  9.2988005400000002 10.3031826800000008
 -25.4496959800000013  7.0970107499999999  1.8271578100000001
 -15.8374737000000003 -0.2371869300000000 18.2257175199999999
 -15.7999282900000004 -1.5625800599999999 10.2610970199999993
 -16.2393565500000001 -3.8977716500000001  2.6998722100000001
 -15.6520373599999996 -6.1477895599999997 18.3440959700000015
 -16.5118221900000002 -7.2274040800000003 10.1118511000000009
 -27.5077603099999983 10.2916209700000003  2.9513955500000000
 -27.0885877499999985  8.0018950199999992 17.7837699600000008
 -17.8580801099999995  0.7830258500000000  9.9794499200000004
 -17.5459668499999992 -1.0341920400000000  2.5379161300000002
 -17.5689191899999990 -3.0376742299999999 18.0850763100000016
 -17.2833470600000005 -4.2496189800000002 10.4038172699999993
 -17.7227822300000000 -6.5492307399999996  2.4458190800000001
 -17.8589038699999989 -8.4145002099999999 18.1782109799999994
 -28.7833353000000010  9.0686125600000000 10.0588794799999999
 -28.5477162600000014  7.1305477300000000  2.6988929399999999
 -8.9119259000000000 16.6306080700000010 18.1852082000000017
 -9.6715881800000005 15.1423828799999995 10.8254987099999997
 -9.7338644300000006 13.1838506800000008  2.9163799500000001
 -9.9952516700000000 11.1386345299999991 18.4264887000000002
 -9.0600246000000002  9.0762736799999999 10.8058663900000003
 -9.2112356799999997  7.1764554100000000  2.9707498600000002
 -19.8223820199999992 -9.2583653800000008  2.7625313800000000
 -1.7814869099999999  2.5120212600000000 18.5558981199999984
 -2.6612640100000000  3.6638376500000001 10.6669705599999993
 -4.8043333500000003  4.8928947500000000  2.9082003799999998
 -6.6503908799999998  5.4669706600000003 18.7118562900000001
 -8.2345556599999998  6.7799190500000002 10.7237350199999995
 -26.8210642300000011  6.8509596799999999  9.9729102699999999
 -27.0418089399999992  4.9640802500000003  2.6899060499999998
 -8.1780800800000009 13.9348608499999997 18.0992446600000001
 -7.8369507100000000 12.0507010399999999 11.0560084500000002
 -7.5726008699999996 10.2479659999999999  2.6518456900000000
 -8.1498175199999991  7.9175236900000003 18.0252076300000006
 -18.9520794899999991 -7.0852854000000001 10.4918414400000000
 -20.5281618100000003 -6.2232405899999996  2.7862829300000000
 -3.0793003300000001  5.7290637100000001 18.2787259099999986
 -4.7664512600000002  6.7214477400000003 10.1111622000000008
 -6.0284189100000001  7.5127732600000003  2.6782010900000000
 -25.2990828100000016  5.1620444499999998 18.3428949599999989
 -25.8602378799999997  3.8806238999999998 10.3449038000000009
 -25.5405720400000007  2.6020057500000000  2.3936273600000000
 -7.0219466300000004 10.8152178699999997 18.5959147099999988
 -6.1620088600000003  9.3188181700000001 10.1744230099999999
 -18.9698202400000007 -5.3865034100000004 18.4665270799999988
 -20.5967560200000008 -4.6350845600000001 10.3206519199999995
 -22.7302276600000006 -3.2949844800000001  2.4155569600000000
 -4.7680060199999996  8.2356834499999998 18.1440883900000003
 -24.0814284200000017  4.7997841399999999  2.3793634400000001
 -24.2917981099999984  2.7514759000000000 18.1183068600000006
 -24.4461009300000001  0.9229020500000000 10.7379207200000000
 -24.0237382199999985 -0.6411874600000000  2.5559640899999998
 -19.2400291000000010 -3.7029972099999999  3.0106329800000000
 -20.7719013399999994 -2.9108883500000000 17.7263033099999987
 -22.8525445699999992 -2.0807338899999999  9.9196030299999993
 -22.4196523300000017  3.6114328800000002 10.1321954299999994
 -21.9588551900000013  2.0784058200000000  2.3858020500000001
 -22.3488526500000013 -0.3513517600000000 18.1265127799999988
 -19.6746024199999994 -1.6869632999999999 10.1145768199999999
 -20.5576136100000006 -0.4768588800000000  2.8356542199999999
 -20.7279367299999997  2.5408143100000000 18.0495301099999992
 -21.0012730900000015  1.2061647600000001 10.1713046600000006
 -19.0722044000000004 -0.1161343500000000 18.1262681800000003
 -18.7303179899999996  1.6404907200000001  2.4758598300000001
  0.4148926100000000 -0.1108202900000000  5.5442757399999998
 -10.9203856399999992 17.9249754800000005 21.3305453999999983
 -11.0702645600000000 15.6663930499999999 13.8373141000000004
 -10.9917467599999998 13.7930788999999994  5.3803865399999999
 -11.3031759300000001 11.6412370999999997 20.4015522800000006
 -10.9461805699999992 10.7696561600000003 13.0223943400000000
 -11.0854570399999997  8.0759650700000005  5.3283583999999999
 -10.5395520299999994  6.5751023599999998 20.6437851600000002
 -11.0643767299999993  5.1889555700000001 12.7136302400000005
 -11.1851042599999992  3.1280300200000002  5.3463524099999997
 -10.9154569099999996  0.6167375300000000 20.2349697500000012
 -11.1963497499999995 -0.9338724000000000 12.6298797500000006
 -1.6964885599999999  0.6898356900000000 20.8602384699999988
 -1.3441223499999999 -0.8020578200000000 12.8125882200000003
 -12.2290655800000003 16.2882655900000017  5.6518574700000004
 -12.7088426000000005 14.6596829199999998 20.8767940699999990
 -12.8800975300000005 13.0299752099999999 13.0524062399999998
 -12.7165462199999997 11.0522674500000004  5.5239982999999997
 -12.7643721699999997  9.2820578299999994 20.8033168800000006
 -12.5116821700000003  7.4987385900000003 13.5426764500000001
 -12.9004217099999998  5.8501082200000001  4.8875487499999997
 -12.9336355699999999  4.0470929399999998 19.9194339599999992
 -12.6670353799999997  2.2495701000000001 12.8504107699999999
 -12.8272260100000004 -0.1349751900000000  5.3402048500000001
 -2.9913799999999999  2.2342167399999999 13.0957463500000006
 -3.2198456300000000 -0.0093773000000000  5.2222812000000003
 -2.8995187699999998 -1.9391394799999999 21.5664607000000004
 -14.3823740799999999 15.8402877199999992 12.9146384800000007
 -14.1987376899999997 13.7401992100000001  5.2604072799999999
 -14.1929365399999998 11.9686137200000005 21.0744044099999996
 -14.4518101399999992 10.6131591800000002 13.2034801099999992
 -13.8717835899999997  8.2710544800000001  5.0885775999999998
 -14.6232345699999993  6.7853949699999996 20.2727654000000008
 -14.6199317900000008  5.0332166500000000 13.3372929300000003
 -14.4805667499999995  2.7421698800000001  4.8026502100000004
 -14.0381716399999998  1.4376692499999999 21.5353577399999985
 -4.9864556599999998  2.6464452399999998  5.3528062399999996
 -4.5585985500000001  0.8170285400000000 20.8147372399999995
 -4.6419456300000004 -0.5003572400000000 13.4110422400000004
 -15.6481698900000001 16.7480232999999998  5.9485890000000001
 -15.6847645900000003 14.2676371900000003 21.2462306000000005
 -16.2201799000000015 13.4250230399999992 13.0766706999999993
 -15.8023297100000004 10.8550372799999995  5.8614104300000003
 -16.0835547400000003  9.3639846799999997 20.7593985100000005
 -15.9906755399999998  7.5271715600000002 12.6363913399999994
 -15.8789203000000008  4.9869582899999996  5.3599004099999998
 -16.2120880999999990  3.8234191800000001 21.1973955700000012
 -15.7137958799999993  2.0721249300000002 12.6504042400000003
 -6.2323922899999999  3.4069925900000002 20.5391509100000000
 -6.1725532500000000  2.2162433199999998 13.0899177000000009
 -6.3565585400000000 -0.1498803800000000  5.3688598100000000
 -5.9766179199999998 -2.3112696399999999 21.0205920699999993
 -17.2973334100000002 15.5004831200000002 13.3601893599999997
 -17.3701843599999997 13.4928480400000002  5.4842286700000002
 -17.2220720000000007 12.2260150299999992 20.9512325900000000
 -17.3245924100000011 10.5893111399999995 13.4216245900000004
 -17.1257801500000006  7.8591180300000003  5.3071649599999997
 -17.4691847899999999  6.5634759899999997 20.7320608200000009
 -17.8426048799999997  4.9886952899999999 12.8257359199999996
 -17.6578199600000012  2.3912831200000002  5.0952360399999996
 -8.0386644599999997  4.4743472600000000 13.0159603700000002
 -8.0888537800000009  2.8364293599999999  5.1857832699999999
 -7.8239814499999998  0.3379402800000000 21.0744038600000003
 -7.7902545800000000 -0.4357658800000000 13.1033504799999996
 -8.1576357399999999 -3.1563117300000001  5.3953250800000001
 -18.9869807299999991 14.7956949299999998 21.6630765600000004
 -19.5922455100000015 12.7786571500000008 13.0149133399999997
 -19.1666721200000012 10.7355341800000001  5.5379739600000004
 -19.3636644800000006  9.6464272300000005 20.2811496700000014
 -18.9287939700000010  7.6263059499999999 12.9182580599999994
 -18.9343556699999986  5.1085371100000003  5.3235821400000001
 -18.7610644800000017  4.0139837500000004 20.5277400199999995
 -9.6929172999999995  5.3465767099999999  5.1828404800000003
 -8.9129497900000008  3.8787182699999998 20.4883600299999991
 -9.6762960699999994  2.1450447200000000 12.8620537600000002
 -9.8236302200000001 -0.1564408800000000  5.3160491600000004
 -9.5677201299999997 -1.9389076199999999 20.8890403700000000
 -8.9789386400000009 -2.9495450600000002 13.1787908399999996
 -20.6382565000000007 13.7258904899999994  5.1817003300000000
 -20.7274525499999989 12.2127727499999992 20.7841975499999982
 -20.8600468799999987 10.0614585400000003 13.4506558700000003
 -20.4644523800000009  8.0202595999999993  4.9727059200000001
 -20.7466935600000006  6.7891604399999999 20.5210180499999986
 -20.6889907700000002  4.6589865399999999 12.6688728000000008
 -11.4423873799999996 -3.2388650299999999  5.5788761100000004
 -11.0223179099999999 -5.1371995600000000 20.4428660800000017
 -22.6119534299999998 13.4344347800000001 13.2375234299999995
 -22.0332077800000015 11.0045018999999993  5.2461936600000003
 -22.7190670300000015  9.2107533400000001 20.2696987499999999
 -22.1593098200000007  7.3495417600000001 12.9001236200000005
 -22.4750389999999989  5.1436621100000002  4.9410184399999997
 -13.2188233900000007 -2.0454824399999998 21.2124759599999990
 -12.7213779099999993 -3.5126746700000000 12.7546837300000000
 -12.9306105299999992 -5.8369206000000000  4.9996966299999999
 -24.0427074099999984 11.6605910399999999 20.1974200400000008
 -23.8886767300000002 10.6003367300000004 12.9001322100000007
 -23.4366982899999989  8.2055270300000007  4.8798925300000002
 -24.4337652100000007  6.2693133200000002 20.5272181799999984
 -14.0223472600000001 -1.0412158899999999 12.4443696599999996
 -14.5707073499999993 -3.0970763799999999  5.3756189299999999
 -14.4688274700000008 -4.8487122800000000 21.3205777699999999
 -14.5312979000000002 -6.5529736700000001 12.8668222399999994
 -24.9722994699999994 11.2617053200000008  5.8525069199999997
 -25.6487068799999989  9.1103300399999991 20.9094415699999985
 -25.3379782599999999  7.4648242900000001 13.0487933900000002
 -16.0570088800000015 -0.4161799800000000  5.4081539500000000
 -16.1410514399999983 -1.4566692600000000 20.7856323600000010
 -16.1329491199999993 -3.6866437599999999 13.1642209300000008
 -16.0723674400000007 -5.4383241299999998  5.3746124000000002
 -15.9498472899999992 -7.7534787999999999 20.4037952099999984
 -26.9753449600000010 10.2347306699999994 12.8525689300000003
 -26.6854479799999993  8.1967411699999992  5.1824944100000003
 -17.6531076599999999  1.1258344899999999 21.7784077700000012
 -17.4474589999999985 -0.5536626200000000 13.1084283799999994
 -17.6871619399999993 -2.7628268100000000  5.1230863199999996
 -17.6094638799999998 -5.3086163099999997 20.6594009999999990
 -17.1962860500000012 -6.6540610600000001 12.9325807299999997
 -17.6236746000000011 -8.2277907599999995  5.7766555700000000
 -28.9084292400000002  9.1001394100000006 20.3625493700000000
 -28.3757176400000013  6.9415895699999997 12.8766295199999998
 -9.8106074099999994 16.7398398700000008  5.8838462700000003
 -9.7032223000000002 15.2357437600000001 20.4357135099999994
 -9.8659903199999999 13.1534010000000006 13.0869487099999997
 -9.7164754500000008 10.7734508600000005  5.3444822099999998
 -9.0218473899999996  9.4446172500000003 21.2051212599999985
 -9.5657190500000002  8.0829947099999995 13.2287608799999994
 -19.4229135900000003 -9.4309345899999997 13.3947260000000004
 -1.1547348200000001  3.0602408300000001  5.5798149500000003
 -3.5572840100000001  3.8239125399999998 21.0382065199999992
 -4.4359409400000001  4.7401228000000000 13.2572636399999997
 -6.6649427699999997  5.3917772599999996  5.8084050999999999
 -7.8517537099999997  6.6890579600000004 20.8020128600000014
 -27.0661463699999985  6.5280468300000001 20.8311822699999993
 -26.9861600599999996  4.2746536099999997 13.0200382399999999
 -8.0207267200000008 13.9155747800000000  4.9216969400000004
 -7.8467024500000004 12.1316163299999999 21.1219736599999983
 -7.6716533299999998 10.1615974100000006 13.3440062099999999
 -8.4200092299999998  8.2578163300000007  5.3693314100000000
 -19.1699849299999983 -7.8107085100000004 20.7937609999999999
 -20.3820447000000016 -6.4182794200000002 13.1594453999999992
 -3.0342493500000001  5.1437114599999996  4.9625985100000003
 -4.3135034900000004  6.9744422799999999 20.7439401799999992
 -6.3485054600000002  7.3801094100000002 13.0252917099999994
 -25.3278419100000001  5.8406640200000002  4.9750681900000000
 -25.5435600299999983  3.6889194100000000 21.0214251200000000
 -26.3109731099999991  2.2684587199999999 13.7727543200000007