Li                                      
   1.00000000000000     
    22.7325000000000017   -0.0000000000000006    0.0000000000000000
    -0.0000000000000006   22.7325000000000017    0.0000000000000000
     0.0000000000000006    0.0000000000000006   22.7325000000000017
   Li
   500
Direct
  0.0325518337182444  0.0045950845705462  0.0032269825140219
  0.0161959881227318  0.1014349262069700  0.0977639494116360
  0.0136329422632784  0.2201231210821533  0.2004750265039021
  0.0082025808863975  0.3061563435609784  0.3039777604750924
  0.9893863785329344  0.4225600026393934  0.4104010298031469
  0.9795676331243826  0.4995903534587072  0.5131637382602037
  0.9859949789948317  0.6070781401077738  0.5956078398768270
  0.0146212062025768  0.7065971129440243  0.7151492765863878
  0.9803893975585609  0.7964847416694170  0.8134390379412721
  0.0090075856153078  0.9229580059386322  0.9150045771472577
  0.1126232882437037  0.9975138493346520  0.1050587080171539
  0.1223026847025181  0.1298097881887159  0.2024968556032078
  0.1121314580446509  0.2039302931925633  0.3088301722203894
  0.0954005767073554  0.3176225008248110  0.3961239617288044
  0.0924157730122062  0.3904769325855071  0.5389769682173124
  0.0795949992301743  0.5219802494226329  0.6187798658308594
  0.0930554488067727  0.6020927548663835  0.7023839216980079
  0.0989179342351250  0.7014259148795787  0.8011249937314417
  0.1009801821181142  0.7995188294292319  0.8956233388320669
  0.1417987740019768  0.9045123338832042  0.0098346961398903
  0.2129219835037972  0.9924396467612482  0.1875266794237334
  0.2106885261189930  0.0912140103376231  0.3043790762124701
  0.1977100349719549  0.2022327808204096  0.4210544951061266
  0.2183685247992955  0.3014326224568364  0.5155291710106695
  0.1751264484768527  0.3963455000549843  0.6220649616188254
  0.1874446092598703  0.5176732721873947  0.6910741898163408
  0.1840152768063348  0.6176504093258544  0.8328750379412710
  0.2066994334103143  0.7149176425822077  0.9065214362696565
  0.2113727751017294  0.7930791835477820  0.0109988936544596
  0.2109781374683806  0.8999375110524568  0.1116568283294868
  0.2845739087209935  0.0187874650830295  0.2897551210821518
  0.2886470216650139  0.0942425483338809  0.3987257112064242
  0.3162499579896618  0.2134484051468135  0.5110827700428899
  0.3322063187066959  0.3128398838667081  0.6002430700538852
  0.2974002744968658  0.3991433863411444  0.6992806198174435
  0.2897769902122533  0.4938350630155099  0.7832546820631237
  0.3024175510832521  0.6000104849884522  0.8871059667876366
  0.3057704603541183  0.6735154989552399  0.0015175739579902
  0.2956296421423090  0.7723663077092269  0.1217831092048840
  0.2919122705377788  0.9094168516441243  0.1950876942703204
  0.4092982659188351  0.9945410100077012  0.3864782874738779
  0.4022613214560664  0.1074752284174636  0.4855545215000561
  0.4157350933685251  0.2092869873529111  0.5877128424062477
  0.4001710370614759  0.3043695106125597  0.7038883162872551
  0.3926908892554692  0.4000073489497424  0.7805989407236353
  0.4002815453645638  0.4982543697349584  0.8795301233916177
  0.4114801086550059  0.5961678411965252  0.0010844614538641
  0.3968464687121980  0.6753963739139976  0.1037063758935446
  0.4083751527548642  0.7991770135268865  0.2042640734631007
  0.3913750454195508  0.9118187757615743  0.2892920035191935
  0.4840249259870220  0.9928952816452181  0.5050632345760491
  0.4723301123941468  0.0758795922137878  0.5768328023754563
  0.5037818431760712  0.2045310907291338  0.7045061022764756
  0.5212322076322451  0.3069973716045311  0.7737118082041121
  0.4914626543494975  0.4039900323325654  0.8845203967887372
  0.4933444579346755  0.4899069882327041  0.0097651208621983
  0.5060628910150697  0.5960932849444660  0.1000717105465725
  0.4967751501154751  0.6810131252611882  0.2250081108545032
  0.5017409343451007  0.8231103077092286  0.3067934001979538
  0.4736595816562215  0.9032145223798551  0.4021232974815803
  0.5911742509622755  0.0088777969866953  0.6045894881777159
  0.5665957998460343  0.0778606814032798  0.6990033907401312
  0.5984229666776670  0.1902457054877402  0.8033974309908700
  0.5959604223028734  0.3028810839106981  0.8811379782250057
  0.5978376425822063  0.3923273603871138  0.9913310590564137
  0.6095105962828526  0.5129702593203547  0.1162487390300200
  0.6081524984053672  0.6050983257450753  0.2119869939513919
  0.6082393916199251  0.7069861418673682  0.3030598627515673
  0.6051348232706459  0.8109297503574169  0.4252151479159778
  0.5935070942483236  0.9005006360936960  0.5115963545584492
  0.6850400444297833  0.9834620142967125  0.6897336487407912
  0.6901996661167900  0.0941769607390270  0.7849876581986166
  0.7019753806224571  0.1925925652699902  0.9260291494556228
  0.6910178207412301  0.2827278517540961  0.9848156713955802
  0.7030733808424046  0.4004986204772933  0.0867663354228512
  0.6916730430001081  0.4921753097987462  0.2047624519960394
  0.6744772308369065  0.6046469121302067  0.3110208111734281
  0.7232388800175968  0.7102168432860410  0.4005151087649850
  0.7032268984933481  0.7711698308589021  0.4946083818321796
  0.7000952266578722  0.9017037365006075  0.5951584273617101
  0.8038093522489831  0.9959401772792233  0.7928634756406012
  0.8042619329154306  0.1015376144286790  0.9193733421313084
  0.8136537547564089  0.2119843822720782  0.0125344198834298
  0.7790266055207269  0.3021832046629243  0.0908121504453945
  0.7846697160453076  0.4077281033762219  0.1984717444187822
  0.8059681187726824  0.5245243391619923  0.3100931239414919
  0.7854799683272873  0.6141029662377662  0.4317202247883003
  0.8028112539315941  0.7035028593423505  0.5296786569888923
  0.8104945395359096  0.8026745307379315  0.6060561482459050
  0.8160420741229544  0.9142575924337422  0.6884801205322759
  0.9103103648960769  0.0098776997690564  0.9046064396788722
  0.9087319621687016  0.0782501678214018  0.9924778546134405
  0.9098087720224370  0.1999052893434481  0.0918194765203992
  0.9102667634444046  0.2889705434949974  0.1894178810073655
  0.8991684412185208  0.3908708800175944  0.2832486083800703
  0.8730499751457188  0.4898390753326751  0.4063931644121865
  0.9079230520180346  0.6026445467942381  0.4945844007478257
  0.9159651718904627  0.7031149068514253  0.6005227163752309
  0.9109943393819435  0.7916832314967550  0.7220114571648537
  0.9222274092158784  0.9321728529638165  0.7916028404267053
  0.1096994298911227  0.1004333513691833  0.9930532801055776
  0.1387440250742316  0.2302557655339257  0.1017942615198493
  0.1182563325635115  0.3057397835697770  0.1783572444737729
  0.1069779452325932  0.3910982782360080  0.2839194488067776
  0.1013751105245788  0.4944325727482664  0.3962600237545360
  0.0755350467392475  0.5978976113493886  0.4990848441658429
  0.1111593586275177  0.7099278491147061  0.5868850183657770
  0.0929472218189815  0.8016577354008589  0.6987214595842985
  0.0966401337292453  0.9054815488837562  0.8029908633014387
  0.1072145747278128  0.9904150933685258  0.8905270348619823
  0.2112466261959725  0.1078293786429114  0.0916656914109737
  0.2182197285824259  0.1923518548333902  0.2044306803035312
  0.2236536742549191  0.2978343336632605  0.3059498088639643
  0.2093876353238784  0.3997998983833710  0.4236804051468184
  0.1781658563730346  0.4970873388320669  0.5349545571318615
  0.1866826926206997  0.6147469965907817  0.5990655840756602
  0.1885601258110654  0.7103157408995955  0.6766372088419672
  0.1907295647201153  0.7928870894094331  0.7745970852303969
  0.2006417397998490  0.9007901264709091  0.8996496122291902
  0.2081780006598493  0.0120094626635847  0.0169647029583189
  0.2970919894424284  0.0920399313757869  0.2080392776861331
  0.3102484632134619  0.1892710977675165  0.3256747242934139
  0.3149016738150223  0.2940758482349040  0.4102527676234473
  0.3012588892554717  0.4250098251402150  0.5273634681623207
  0.3088400875398634  0.5153105883646774  0.6066826904212022
  0.2875409906521469  0.6179663231056836  0.6985958601121709
  0.2870398658308559  0.6863855453645655  0.7797972532717452
  0.3016403356428015  0.7972761222918763  0.8774163954690408
  0.2830552438139193  0.8893701467062556  0.9949653170570798
  0.3091414591443993  0.9944473137578385  0.1329057230836881
  0.4237271026063993  0.0989782461233943  0.3052685494336274
  0.4134246888815554  0.1875907682832931  0.3962751901462696
  0.3997712776861349  0.3173851006268578  0.4798737248432872
  0.4007648503244283  0.4018705703288248  0.5830930795117126
  0.3927896984493557  0.5061066785439365  0.7010664405586695
  0.3967661185527334  0.5894702914329670  0.7653541898163425
  0.3903316577587148  0.6921751281205317  0.8863027981964180
  0.3877482247882966  0.8041073867810411  0.0093365683492763
  0.3987378510942463  0.8949947300120940  0.1137190326624875
  0.4147388096337821  0.0116831804684949  0.2108742514021742
  0.5168140587264958  0.0996658049048733  0.3990272051028256
  0.5146223398218410  0.1841626072803280  0.4903949622786783
  0.4874692427141767  0.2983626671065664  0.5886340939184009
  0.4869058207412280  0.4084047016386236  0.6831576478609946
  0.4861518719894420  0.5102256293852392  0.7717533086989974
  0.4885868738590133  0.6014507251732084  0.9043020283734720
  0.4953452858242571  0.7002270590564166  0.9990230361816756
  0.5059069957109870  0.7789270410205660  0.1155819056417045
  0.5125786952600890  0.8895130144066883  0.1739473872209416
  0.5133005349169721  0.9931712081821189  0.2910765701088778
  0.6089546530298051  0.0715773522489798  0.4870596181678195
  0.5843961346090367  0.1841125837457369  0.5923457455185286
  0.5858183996480832  0.3130111043659980  0.6778805661497884
  0.6032883220059375  0.4024421643022080  0.7953127843396004
  0.5847041733201337  0.5113602265478931  0.8876086466512731
  0.5904616953700668  0.5973291837677337  0.9902583864511172
  0.5994374622236904  0.6725167619047596  0.1078224801495651
  0.5992196586385106  0.7912286325745086  0.1940536254261502
  0.6086174257120831  0.8912686805234813  0.3081171155834141
  0.6185286607280318  0.9647307630045105  0.4156185065434954
  0.7087071721104152  0.0944014314307680  0.5888544198834254
  0.6989487588254732  0.1846205072033413  0.7208785017046111
  0.7051803853513690  0.3220808512042197  0.8079763162872524
  0.6866962881337315  0.4060914888375677  0.9096904317606942
  0.6937168406466512  0.5199423019905396  0.9985588650610353
  0.7071825527328741  0.6009009061915762  0.1072898251402208
  0.7058054639832818  0.6771307454085544  0.2148635623006712
  0.7057278214010765  0.7913993273947000  0.2846905782470017
  0.7282126717255011  0.8801646171780462  0.4086262219289551
  0.7283037211041474  0.9940179659078439  0.5040354817991854
  0.7937860508083148  0.1086849400637888  0.7099734428681401
  0.8114320153964556  0.2003412669086089  0.8218281425272167
  0.7923696469811929  0.3055037496975714  0.9178900063785349
  0.7988869679973618  0.4218773812823073  0.9970830181458297
  0.7899552596502772  0.5083278574727785  0.1005968824370385
  0.7960927904981858  0.5947667335312872  0.2107173029803135
  0.7907537002089526  0.6873087139557867  0.3199591030463012
  0.8060963580776388  0.7847164601341703  0.4217954043769936
  0.8062605072033406  0.8943380142967143  0.5112322401847607
  0.8196539799846008  0.0207017226437927  0.6185442692180771
  0.9026360919388523  0.1104333645661484  0.8122829231276825
  0.9078729185087440  0.1986273058396577  0.9113313766633695
  0.9029172642692203  0.3141323963488389  0.9923685802265467
  0.8887098854063566  0.4004294551853107  0.0828591325195234
  0.9021546195974892  0.5151305936434625  0.2029127566259774
  0.8884779733861237  0.6144036810733553  0.3080439876828365
  0.8971556872319368  0.7054810174859796  0.4168070150665315
  0.8958777723523568  0.7974096720554300  0.4928637039480890
  0.9158250205652720  0.9002540296931727  0.6082231756296039
  0.9093564209831726  0.0256612620697254  0.7026307823600604
  0.0098936091498985  0.1117481095348083  0.9167387476080506
  0.9942985927636627  0.2085135348069969  0.0138456909710740
  0.0058190440998587  0.3119364306609498  0.0968846242164290
  0.9827248336082732  0.3977573117782924  0.1851293553282716
  0.9699879753656688  0.5001246717255015  0.3122592882437019
  0.9823751765094002  0.5749841033762237  0.4085694182338031
  0.0078666899813058  0.7048351861871751  0.4942672609699770
  0.0271890645551522  0.7977673115583386  0.5914936733751261
  0.0288713075992533  0.8990548439458905  0.7083452167601436
  0.9978423873309126  0.0424142060926016  0.8000840712636119
  0.2047909402837362  0.1984660037391421  0.0157012413944813
  0.2209049048718796  0.3148638029253306  0.0983472468932121
  0.2075882802155533  0.4032349798746253  0.2089649317057081
  0.1972489638183248  0.4837261524249428  0.3077795139117967
  0.1996854908171102  0.6070031184427549  0.4133781915759371
  0.1815306028813382  0.7011943191465946  0.4852031927856615
  0.1813026367535500  0.8154910203453198  0.5810950445397580
  0.1891434782799948  0.9044221330693958  0.6960734450676327
  0.2069080360717024  0.9919119951611108  0.7795284249422636
  0.2042457895084127  0.1093667533267322  0.8986858546134400
  0.3305991756296081  0.2085385967227538  0.0986729453425710
  0.3141937921478046  0.3049529418233803  0.2055276111294404
  0.3087091982843972  0.4117811349389626  0.3104335048938722
  0.2823679001429653  0.5232721284504578  0.4189440400307944
  0.2865939764654115  0.6082952332563494  0.4895759810843501
  0.2903188364676126  0.7197762929726181  0.5853065118222815
  0.2829186961398875  0.8040260332123594  0.6756524029473212
  0.2926425360167144  0.9021074659628283  0.7763932572308363
  0.2906876045309588  0.9973242525019259  0.8910772963818303
  0.3047249756955921  0.1078418730891926  0.0049536861321897
  0.4214527896183853  0.2140008916749139  0.1914559621687033
  0.4083123321236144  0.2971107612449160  0.3188764333003391
  0.3895657125261209  0.4272241763994273  0.4059497472781288
  0.4061857340811628  0.5247913335532814  0.4961181185527295
  0.3837320277136271  0.6107283514791604  0.5819762371054651
  0.4007889849334632  0.7050257815902370  0.6758510872099421
  0.3781864502364485  0.7968838438359143  0.7998792895633997
  0.3860290443198053  0.9014537376003489  0.9018252796656796
  0.3648959832838443  0.9988965243593952  0.9935964557351795
  0.4018469820741259  0.0938450152864831  0.0987169884526580
  0.5183443928296469  0.1965468540635626  0.2888030559771266
  0.5030195020345332  0.3122492528318475  0.3940177340811601
  0.4909821990542156  0.3968574587044955  0.4924818453755648
  0.4993977006488493  0.5055869297261637  0.5881887038381137
  0.4961880299131209  0.6010581519850433  0.6660216007918152
  0.4923865536126684  0.6950627753216736  0.7910922547014181
  0.4797108874958766  0.7771066785439373  0.9205641051358171
  0.5019504748707817  0.8826239753656679  0.0030562014736617
  0.4778554659628256  0.9882392029033298  0.0946300723633584
  0.5128024871879475  0.1025550498185410  0.1673605441548460
  0.6132317690531153  0.2029672636093665  0.4043035741779377
  0.5837026270757733  0.2804538876058515  0.5234646158583516
  0.6228429059716234  0.3782359300560856  0.5767743895304065
  0.5873111474760790  0.5006448058946447  0.6818285758275593
  0.5952077615748408  0.5966289858132612  0.7813497222038919
  0.5875049532607477  0.6758758376773315  0.8848841381282284
  0.6132306719454519  0.7768334661827794  0.9961309455625198
  0.5946701357087889  0.8899047909380826  0.0959878931045850
  0.6009678165621892  0.9867440945782491  0.1769836977895096
  0.6186157721324079  0.0901818172220388  0.3058914391289989
  0.7178517479379707  0.1988551677114287  0.4805276472011428
  0.6982188219509524  0.2927958882657009  0.6165933043000109
  0.7119394272517354  0.3850497965467952  0.6976225061035990
  0.6961613540085807  0.4820636414824619  0.7984494230726966
  0.6936856122291886  0.5912007979764624  0.8823108360277132
  0.6835160950181489  0.6872554188936562  0.0045287566259731
  0.6778007350709316  0.7785075359067406  0.0963456724953247
  0.7004584792697699  0.8735566123391649  0.2003131644121865
  0.7068833727042758  0.9792580239744879  0.2808896601781612
  0.7168190009897728  0.0910937512372172  0.3822094692620723
  0.8190158486748018  0.1790840734631018  0.6075610583965698
  0.8031548830968873  0.3029188408666030  0.7181018519740476
  0.7980674136148664  0.4230906525899059  0.8154895057736695
  0.8031818115033573  0.5001550863301460  0.9065099931815652
  0.7905816865720894  0.5933497107665247  0.9855729242274265
  0.7845546424722301  0.6955857288023779  0.1216276260860027
  0.8047100358517554  0.7882906169581005  0.2076261546244353
  0.8186409633784208  0.8985398042450257  0.3031965494336291
  0.7996618757285816  0.9968316678763856  0.3927797228637431
  0.8186180332123598  0.1178800268338307  0.4882340094578268
  0.9065887064775069  0.1887846655669208  0.7211771243813914
  0.8905788448256899  0.2980194479269755  0.8170322388650604
  0.8834175150115442  0.4071111729902128  0.9059623129880094
  0.9031776755746179  0.5124277255031373  0.9911784163642352
  0.8890883422412870  0.6108113445507541  0.0841145412954987
  0.9094539694270338  0.7258236388430674  0.1991431290003334
  0.9038943864511140  0.8020848657208859  0.3138562542615233
  0.8796941035961723  0.9100643624766320  0.4111126400527851
  0.9210464955460225  0.0060814186737019  0.4975553590674124
  0.9087776980094588  0.1212972941823409  0.6053630243044097
  0.0133144387990782  0.2089769616188306  0.7930331908061135
  0.0082020393709428  0.2771042718574748  0.8771068874958772
  0.9798063332233582  0.3938741731001869  0.0030911760695034
  0.9840813883206891  0.4951457169251086  0.1176782619597461
  0.9863623019905390  0.6103334415484412  0.1963350207852201
  0.9863189108105104  0.7173778255801153  0.2905795693390516
  0.0068675662597570  0.8129225043440016  0.3873521016166279
  0.9993675165511959  0.9043558117233061  0.5077294076762371
  0.9990582184097647  0.0095736408226088  0.5890280193555455
  0.9911853777631165  0.1283680695040132  0.6874728648410837
  0.1127403360827017  0.2099787603651180  0.9123732009237884
  0.1008245006048583  0.3160378554932350  0.0049216575387661
  0.1128426741449502  0.4068720589464405  0.0839135110524580
  0.0984332955020335  0.5094213421313114  0.2133866517101097
  0.0974615524029474  0.6019175779170780  0.3233492787858765
  0.0864660626855809  0.6810931978444970  0.4023520884196614
  0.0992409998900285  0.8144934507863226  0.4937557919278532
  0.1135554615638412  0.9190089127900549  0.5951951479159803
  0.0817006695260076  0.0125400290333246  0.7117535189706388
  0.1133180978774888  0.0954805322775769  0.8058183288243725
  0.3272165991421971  0.2815988047948963  0.0012178374573821
  0.3109310119872433  0.4006593520290309  0.1097567847794991
  0.3005448503244281  0.5189516854723379  0.2069642001539620
  0.2874219500714830  0.6041635649400661  0.2994617340811629
  0.2932867150555367  0.7209362362256684  0.4025824044869708
  0.3065682265478955  0.8105503407016386  0.4943718438359213
  0.2974526426921784  0.9168885555922159  0.6010627819201559
  0.3029141585835262  0.0041856817332047  0.6842898163422433
  0.2946345492136828  0.1120629306059584  0.7993213152974832
  0.3138288727592666  0.1990909627185715  0.9148622162102740
  0.4139890372814250  0.3122100002199488  0.0973427814802577
  0.3972130610359628  0.4104667924777274  0.2151757237435419
  0.3820762573408132  0.5139054204333036  0.2740214103156262
  0.3852275535026948  0.6004689391839904  0.3767487645441534
  0.3923999353348719  0.6763614494666257  0.4683651542945100
  0.3977233067194561  0.7979747225338159  0.5684942003739124
  0.3942177380402541  0.8804352226987788  0.7056788703398240
  0.3963932097217651  0.9941797571758499  0.7975628267898358
  0.4205520967777403  0.0794031092048826  0.9109875526228990
  0.4331388171120665  0.1970433656658983  0.9903175708786947
  0.5048155803365191  0.3094684218629737  0.1896197655339265
  0.5120373698449328  0.4068941744198824  0.2640885894644214
  0.4945923554382503  0.5016194052567897  0.4007667753216779
  0.4936882744968685  0.6051825509732751  0.5011240039590916
  0.4874224269218104  0.7156911712306169  0.5764693152974800
  0.4858630854503474  0.7899894450676328  0.7185109345650531
  0.4941410254041543  0.9057505355768143  0.8075633221159109
  0.5004291820081406  0.9951582716375214  0.9143218682503047
  0.4939330144066858  0.0877582426042025  0.9960890931485764
  0.4990474312108191  0.2070163871109614  0.0861163242054346
  0.5967367161552843  0.2954395926536861  0.2945984203233252
  0.6028378568129327  0.4088509741559463  0.4130989996700762
  0.5886470841306490  0.5106192253381749  0.4798529515011580
  0.5832957312218170  0.5757772048828755  0.5937371767293556
  0.6066186917408984  0.6816778062245703  0.6895657776311452
  0.5966328679203770  0.7589397365006079  0.8299910023094696
  0.5976421198724324  0.8882094402287493  0.9222098911250427
  0.6232524302210507  0.9924885371164649  0.0279872512922026
  0.5743237932475509  0.0991359665676868  0.0933091485758268
  0.5772997321016149  0.1961176461013991  0.1778661247113149
  0.7039393837017514  0.2977071637523352  0.3992907005388773
  0.6953958966237792  0.3829325441548477  0.4811896139887821
  0.6920301453865605  0.4830054820191378  0.5787538911250394
  0.6800758121632029  0.5737021031562719  0.7069348206312540
  0.6942984132849475  0.6880493240954593  0.8004938999230191
  0.6997019320356301  0.7755703525789102  0.9076694358297601
  0.6903467207742224  0.8642763910700566  0.0311678244803701
  0.7063994734411096  0.0005245221598997  0.1067451019465508
  0.6960489519410515  0.1050010724733283  0.1796177397998449
  0.6975028017156077  0.1919813540085755  0.2857171204223050
  0.7942097983063903  0.2731464093258538  0.5084796599582120
  0.8031490803915133  0.3890286488507613  0.5954163611569356
  0.7886709372044436  0.4982855827559689  0.7200792367755398
  0.8075466420323352  0.6053688261299897  0.7871771930056113
  0.8138060763224431  0.6937733205762697  0.8936070260640037
  0.8035092686682077  0.7811738766083778  0.0051660604860899
  0.7871228021555012  0.8797668091938888  0.0986984093258556
  0.8071639115803393  0.9985069904321975  0.1968755086330134
  0.7958653240954590  0.0907485023644554  0.2819221269108070
  0.7937471206422515  0.1857978546134404  0.3860088393269550
  0.8687569295062119  0.2961246981194350  0.6041583090289251
  0.8864142615198531  0.4026326237765332  0.7025526206972401
  0.9033684447377084  0.4992048622016938  0.8141607003189293
  0.8938513740239742  0.6063189152094992  0.8937606915209528
  0.9051307203343200  0.6844750089079525  0.0004339909820743
  0.8897071373584069  0.7975219364346202  0.0859936483008923
  0.8968927236335631  0.9002560263939259  0.1855279762454600
  0.8971233058396564  0.0018219883426838  0.2865529796546795
  0.9210489281865151  0.1048422786759033  0.3867381242714174
  0.9011110766523700  0.2051709851534156  0.4745372158803463
  0.9930192908830975  0.2972206704058067  0.6928451103046314
  0.9895931380182574  0.3935309979104815  0.7820660842406255
  0.0043656461013981  0.4912249831738720  0.8857311905861636
  0.9838330333223340  0.5992975062135741  0.0098942201693646
  0.0048038768283263  0.7144082164302219  0.1041029913119971
  0.9931703200263939  0.8257713106785474  0.2036939698669329
  0.0002909591993827  0.9061749701968580  0.2996203004508970
  0.0200748223908533  0.9939739707467297  0.4125947542065305
  0.0071623816122326  0.1008537367205520  0.4977793903002308
  0.9828531705707704  0.2085233335532806  0.5814714958759453
  0.0836445494336289  0.2970734213131010  0.7874669965907870
  0.1045208604421006  0.3966470309028907  0.9245018594523273
  0.0769421902562399  0.4945531705707680  0.0025369114703651
  0.0719190946882193  0.5945642828549467  0.0899113713845807
  0.0898937204442944  0.7033604935664783  0.2016716309248849
  0.0844100499285148  0.8129595284284648  0.3112449506213579
  0.0871523571978443  0.9261824669526035  0.3994618194215320
  0.1096762586605067  0.0088554351699131  0.5110760030792889
  0.0872956546794228  0.1098717197844508  0.6147642305069851
  0.1131454569449062  0.2023017085670276  0.7055005608710019
  0.2021176870119845  0.2985130795117144  0.9141716278455974
  0.2365264409985670  0.3936106468712168  0.0152417261629836
  0.2168646444517748  0.5228124852084051  0.1153148307489289
  0.1837387867590436  0.6255483189266471  0.2124439142197261
  0.1997367412295148  0.7153477857692749  0.3188877180248539
  0.1800131089849302  0.8133989160892980  0.4090835706587512
  0.2035619311558321  0.9146915416254231  0.4965530803915073
  0.2140642859342350  0.0341264000879775  0.6038242837347383
  0.1977832530517958  0.1108438134829015  0.7094505800065960
  0.2019146151985041  0.2031764240624625  0.8090431329594168
  0.3945325674694828  0.4076030278235976  0.0026918671505527
  0.4064867229737175  0.5140107920378298  0.1152702839546933
  0.4215445881447266  0.6102871426371905  0.1976128811173439
  0.3978470872099393  0.6907736663367459  0.3102168168921153
  0.3867228219509542  0.7989732911030458  0.4054430766523680
  0.3993995046739229  0.8975334635433825  0.4964267797206645
  0.4062395904541987  0.9788632992411763  0.5920949807544247
  0.4126359538106215  0.0840024814692626  0.7033605692290763
  0.4258840914989577  0.2005658449356673  0.8112185659298348
  0.4084719938414167  0.3117063855713198  0.8813112653689643
  0.5002686365335975  0.4118092158803464  0.1039973113383894
  0.5008642159903189  0.5006134116353209  0.2090037316617170
  0.5181495440448671  0.5802036384031695  0.3057638319586502
  0.5081435895743951  0.7036985241394476  0.3781440497085669
  0.5119894908171148  0.8098967891784881  0.4851411164632111
  0.4941503090289245  0.9220455862751535  0.6193886118992609
  0.4939140398108464  0.9826339210381647  0.7191072191795911
  0.5019357017486001  0.1120447324315421  0.8386583833718220
  0.5140850473990994  0.2071245067634422  0.8863660947981984
  0.5139875372264413  0.3057873608270114  0.9955911892664702
  0.5978379857032863  0.3841732493126599  0.1884122344660710
  0.5955486316947116  0.4942487764214221  0.3110545632904405
  0.6041533293742418  0.5975373641262536  0.4043750603761112
  0.6074795592213817  0.6837965072033398  0.4950633194765217
  0.5746401856373069  0.7941322784559546  0.6000910071483574
  0.6007223895304108  0.8817659390740147  0.6986733513691874
  0.6066773601671613  0.9936437347410063  0.8131661695809953
  0.6216779452325980  0.0830991782689949  0.9234750480589469
  0.5802416641372474  0.2069702857142843  0.0134206462113724
  0.5869393163972276  0.3042829402837341  0.1233650764324210
  0.6920656694160314  0.3907836731551768  0.3031144739909806
  0.7115404196634785  0.5131630938084228  0.3763409818541703
  0.7122033419113620  0.5887925419553497  0.4798314813592839
  0.6808988540635639  0.6709450126470884  0.6024311897063654
  0.6666070146266350  0.8050073665456949  0.7019023283844703
  0.6870992464533145  0.9004688780380548  0.7860516920708207
  0.7038389046519313  0.0138803778730860  0.9168600774221929
  0.6943006919608479  0.1171694160343151  0.0173635262289693
  0.6718692255581189  0.2073094617837867  0.1179242564610163
  0.6873343138678081  0.3080681869570014  0.2173057063675330
  0.7930204504563960  0.4008946442318262  0.4071956476410392
  0.8087872697679543  0.4834220934785023  0.4981775774771791
  0.8043591048058971  0.5857923796326858  0.5908662144506778
  0.7864995530627965  0.6924350625756048  0.6745864801495642
  0.8143186468712216  0.8122583543385034  0.7828837048278885
  0.7952000224348410  0.9008281368085349  0.9062774974155943
  0.7764077628945358  0.9871262492026815  0.0031172242384230
  0.7989351699109193  0.0904811336192708  0.1087988496645806
  0.8146183037501373  0.2152462386451148  0.1983884962058724
  0.8033583983283847  0.2949059307159345  0.2835522890135280
  0.8771624665127007  0.3976884522159878  0.5289715706587472
  0.8865761332893456  0.4995819566699637  0.6152350260640063
  0.8851632957219806  0.5972357347410124  0.7175482247882954
  0.8958759489717352  0.6839502527218713  0.7853648674804816
  0.8761241165731875  0.8124338444957644  0.9038306446717286
  0.9036866618277770  0.9129218867260533  0.0061071435169922
  0.9085016087099973  0.9870948677004279  0.0981791945452528
  0.9188675988122696  0.1020569176289428  0.1876687575057758
  0.8966868483448778  0.1754284003079292  0.2971741326294932
  0.8818337556362010  0.2991111756296050  0.4117651037061449
  0.9641216368635241  0.4040499989002555  0.6245176584185614
  0.9861966928406432  0.5066146055207312  0.7063954400087979
  0.0151836102496432  0.5854508830968896  0.7904183257450796
  0.9832202089519413  0.6780035886946010  0.8983826059606272
  0.0168640259540282  0.8071855304080060  0.9914744876278476
  0.0194467977565154  0.8871094639832862  0.0832564579346737
  0.0090999014626618  0.0016364003079303  0.1975015488837570
  0.0197736632574532  0.0895852902232477  0.2940779826239961
  0.0159868725393153  0.2057897349609590  0.3940092154404482
  0.9924844728912348  0.3027642366655670  0.5013779553502715
  0.0731236124491375  0.3975052347960002  0.6857439568899153
  0.1048509657978656  0.4878152882437021  0.7691814798196432
  0.0936465747278135  0.6009115425052229  0.8986574965357974
  0.1036192398548366  0.6919849237875297  0.0158314092158776
  0.1020098009457797  0.8071813474100935  0.0933395125921024
  0.1062338071043669  0.8975845006048644  0.1999694111954256
  0.1321630951281207  0.9944169897723540  0.3009114373694075
  0.1103010575167716  0.0816529352248949  0.3953454784999479
  0.1105498884856502  0.1988023948091922  0.4936367557461807
  0.0899911281205306  0.2891682142307275  0.6165270638953047
  0.2061273317936880  0.3913931688111703  0.7887309697569549
  0.1894138018255802  0.4942733623666555  0.9161959771252626
  0.1760898247003198  0.5962509394039373  0.9889383921697998
  0.2047286400527852  0.6877289339051984  0.1053830484988438
  0.1844910630155070  0.7951510608160106  0.1776950018695729
  0.2023398315187492  0.8858168463653371  0.2961668391070020
  0.2009130359617259  0.9895787713625879  0.4044425153414721