Li 
 1.0000000000000000
    22.7325000000000017   -0.0000000000000006    0.0000000000000000
    -0.0000000000000006   22.7325000000000017    0.0000000000000000
     0.0000000000000006    0.0000000000000006   22.7325000000000017
 Li 
 500
Cartesian
  0.7399845600000000  0.1044577600000000  0.0733573800000000
  0.3681753000000000  2.3058694599999998  2.2224189800000000
  0.3099108600000000  5.0039488499999996  4.5572985399999997
  0.1864651700000000  6.9596990800000000  6.9101744399999996
 -0.2412741500000000  9.6058452600000006  9.3294414099999994
 -0.4644787800000000 11.3569377100000004 11.6654946800000001
 -0.3183691400000000 13.8004038199999997 13.5396552200000002
  0.3323765700000000 16.0627188700000012 16.2571309299999989
 -0.4457980200000000 18.1060893900000011 18.4915029299999993
  0.2047649400000000 20.9811428699999993 20.8003415499999988
  2.5602089000000001 -0.0565164200000000  2.3882470800000002
  2.7802457800000000  2.9509010099999999  4.6032597700000002
  2.5490283699999998  4.6358453900000001  7.0204818900000001
  2.1686936100000000  7.2203534999999999  9.0048879599999996
  2.1008415600000001  8.8765168699999997 12.2522939300000004
  1.8093933200000001 11.8659160200000002 14.0664133000000007
  2.1153829900000001 13.6870735499999991 15.9669425000000000
  2.2486519399999998 15.9451646100000008 18.2115739199999993
  2.2955319900000002 18.1750617900000009 20.3597575500000012
  3.2234406299999998 20.5618266299999988 22.9560672299999986
  4.8402489900000001 -0.1718657300000000  4.2629502400000003
  4.7894769200000002  2.0735224900000002  6.9192973499999999
  4.4944433699999999  4.5972566900000000  9.5716213099999994
  4.9640624899999999  6.8523170899999997 11.7192668799999993
  3.9810619900000002  9.0099240799999993 14.1410917400000002
  4.2610845800000003 11.7680076600000003 15.7098440200000002
  4.1831272799999999 14.0407379300000006 18.9333318000000013
  4.6987948700000004 16.2518653099999995 20.6074985499999990
  4.8050316100000003 18.0286725399999987  0.2500323500000000
  4.7960605100000002 20.4578294700000001  2.5382388499999999
  6.4690763799999997  0.4270860500000000  6.5868582900000003
  6.5616684200000002  2.1423687299999998  9.0640322300000005
  7.1891521699999998  4.8522158700000002 11.6181890699999997
  7.5518801399999997  7.1116326599999997 13.6450255899999995
  6.7606517400000001  9.0735270299999993 15.8963966899999996
  6.5873554299999997 11.2261055699999996 17.8053370599999994
  6.8747069800000000 13.6397383500000000 20.1661363899999984
  6.9509269900000001 15.3106910799999998  0.0344982500000000
  6.7204008399999999 17.5578170900000003  2.7684345299999999
  6.6358956899999999 20.6733185800000001  4.4348310099999999
  9.3043728300000001 -0.1240964900000000  8.7856176700000006
  9.1444054900000005  2.4431806300000001 11.0378681600000004
  9.4506980100000000  4.7576164399999996 13.3601821899999997
  9.0968880999999993  6.9190798999999998 16.0011411499999987
  8.9268456399999998  9.0931670600000007 17.7449654199999998
  9.0994002300000005 11.3265674599999997 19.9939185299999984
  9.3539715700000006 13.5523854499999992  0.0246525200000000
  9.0213123500000005 15.3534480700000007  2.3575051899999999
  9.2833881599999994 18.1672914600000013  4.6434330499999996
  8.8969332199999993 20.7279203199999991  6.5763304700000003
 11.0030966299999999 -0.1615080100000000 11.4813499799999992
 10.7372442800000005  1.7249328300000000 13.1128516800000003
 11.4522207500000004  4.6495030200000000 16.0151849700000000
 11.8489111600000001  6.9788177500000002 17.5884036799999990
 11.1721747899999997  9.1837034099999997 20.1073599200000004
 11.2149528899999993 11.1368106099999995  0.2219856100000000
 11.5040746699999996 13.5506905999999994  2.2748801599999999
 11.2929411000000002 15.4811308699999994  5.1149968799999996
 11.4058257899999997 18.7113550699999998  6.9741809699999999
 10.7674664399999997 20.5323241299999992  9.1412678599999992
 13.4388686600000007  0.2018145200000000 13.7438305399999994
 12.8801390199999997  1.7699679399999999 15.8900945799999995
 13.6036500900000004  4.3247605000000000 18.2632320999999997
 13.5476703000000001  6.8852442399999996 20.0304690900000004
 13.5903442099999996  8.9185817200000006 -0.1970667000000000
 13.8556996300000002 11.6610964199999998  2.6426244600000000
 13.8248266700000002 13.7553976900000006  4.8189943399999997
 13.8268019700000000 16.0715624699999999  6.8893083300000004
 13.7562273699999995 18.4344605500000007  9.6662033500000000
 13.4919000199999992 20.4706307099999982 11.6298641299999996
 15.5726728100000003 -0.3759497600000000 15.6793701700000003
 15.6899639099999995  2.1408777600000000 17.8447319399999991
 15.9576553400000005  4.3781104900000001 21.0509576400000000
 15.7085626099999995  6.4271108899999998 -0.3451777500000000
 15.9826156299999997  9.1043348900000005  1.9724157200000001
 15.7234574499999997 11.1883752300000001  4.6547624399999998
 15.3325536499999995 13.7451359300000000  7.0702805900000003
 16.4410278400000003 16.1450043900000004  9.1047097099999998
 15.9861054700000000 17.5306181800000012 11.2436850400000008
 15.9149147400000004 20.4979801899999998 13.5294389499999994
 18.2725961000000012 -0.0922899200000000 18.0237689600000017
 18.2828843899999995  2.3082038200000001 20.8996545000000005
 18.4963839800000009  4.8189349699999999  0.2849387000000000
 17.7092223100000012  6.8693796999999996  2.0643872100000000
 17.8375043200000007  9.2686791100000008  4.5117589300000001
 18.3216702600000012 11.9237495399999993  7.0491919400000000
 17.8559233800000001 13.9600956800000002  9.8140800099999996
 18.2499068300000005 15.9923787500000003 12.0409200700000003
 18.4245671199999990 18.2467987700000016 13.7771713899999995
 18.5506764500000010 20.7833607200000010 15.6508743399999997
 20.6936303700000011  0.2245448100000000 20.5639658899999986
 20.6577493300000015  1.7788219400000000 22.5615028299999985
 20.6822279100000017  4.5443469900000002  2.0872862500000000
 20.6926391999999986  6.5690228800000003  4.3059419800000001
 20.4403465900000008  8.8854722800000001  6.4389489900000001
 19.8466085600000000 11.1352667800000003  9.2383326100000005
 20.6393607800000005 13.6996171600000007 11.2431398900000001
 20.8221782699999984 15.9835596199999994 13.6513826500000004
 20.7091788200000018 17.9969390599999990 16.4131254499999990
 20.9645345799999987 21.1906193800000011 17.9951115699999988
  2.4937422900000001  2.2831011600000002 -0.1579163100000000
  3.1539985499999998  5.2342891900000001  2.3140380500000002
  2.6882620799999999  6.9502296299999999  4.0545060599999996
  2.4318761400000000  8.8906416099999994  6.4541988699999999
  2.3045097000000001 11.2396884600000000  9.0079809900000001
  1.7171004500000000 13.5917074499999995 11.3454462199999995
  2.5269301199999998 16.1384348300000013 13.3413636800000006
  2.1129227199999998 18.2236844699999985 15.8836855799999999
  2.1968718400000000 20.5838593100000011 18.2539897999999994
  2.4372553199999998 22.5146111100000006 20.2439058199999984
  4.8021639299999999  2.4512313500000000  2.0837903299999998
  4.9606799800000001  4.3726385399999996  4.6472204399999999
  5.0842071500000001  6.7705189900000002  6.9550040299999996
  4.7599044199999998  9.0884511900000007  9.6313148099999992
  4.0501553299999999 11.3000379300000002 12.1608544700000003
  4.2437643100000004 13.9747360999999994 13.6182583899999994
  4.2864430599999999 16.1472525800000000 15.3816553500000008
  4.3357598299999998 18.0243057600000007 17.6085282399999983
  4.5610883500000003 20.4772115499999998 20.4512848100000006
  4.7324064000000003 23.0055051100000014 23.1181501099999984
  6.7536436499999999  2.0922977399999998  4.7292528799999998
  7.0527231900000000  4.3026052300000002  7.4034006699999999
  7.1585023000000003  6.6850792200000004  9.3260710400000004
  6.8483676999999998  9.6615358499999999 11.9882900400000008
  7.0207072899999998 11.7142979500000006 13.7914142599999998
  6.5365255700000002 14.0479194399999994 15.8808303899999999
  6.5251337500000002 15.6032594099999997 17.7267410599999984
  6.8570389299999999 18.1240794500000000 19.9458682100000004
  6.4345533300000000 20.2176068600000001 -0.1144509300000000
  7.0275582200000004 22.6062735600000018  3.0212793499999999
  9.6323763600000003  2.2500229799999998  6.9395173000000003
  9.3981767400000003  4.2644071400000003  9.0083257600000000
  9.0878005700000006  7.2149568000000004 10.9087294499999992
  9.1103869599999996  9.1355227400000008 13.2551634299999996
  8.9290918200000000 11.5050700700000004 15.9369928600000001
  9.0194857899999992 13.4001333999999996 17.3984141200000018
  8.8732144099999992 15.7348710999999994 20.1478783600000000
  8.8144865200000009 18.2793711700000010  0.2122435400000000
  9.0643081999999993 20.3454677000000004  2.5851179100000001
  9.4280499899999999 22.9980879000000016  4.7936989199999998
 11.7484755900000000  2.2656529100000000  9.0708859400000001
 11.6986523400000006  4.1864764699999997 11.1479034800000001
 11.0813945599999997  6.7825293300000000 13.3811245400000001
 11.0685865700000008  9.2840598799999992 15.5298812300000009
 11.0514474299999996 11.5987041200000007 17.5438820900000003
 11.1068011099999993 13.6724786100000006 20.5570458599999988
 11.2604367100000005 15.9179116199999999 -0.0222088300000000
 11.5005307800000001 17.7069589600000015  2.6274656699999999
 11.6521951900000005 20.2208545999999991  3.9542589800000001
 11.6686044100000004 22.5772644900000010  6.6168981300000000
 13.8430616499999992  1.6271321599999999 11.0720827699999997
 13.2847851299999995  4.1853393099999998 13.4654996600000008
 13.3171167700000002  7.1155249300000003 15.4099199700000007
 13.7142517799999997  9.1485164999999995 18.0794478699999992
 13.2917876199999991 11.6244963499999994 20.1775635599999994
 13.4226704899999998 13.5787856700000003 -0.2214512300000000
 13.6267121099999997 15.2879872900000002  2.4510745300000001
 13.6217608899999991 17.9866048899999988  4.4113240400000002
 13.8353956300000007 20.2607652800000011  7.0042723300000000
 14.0607027799999997 21.9307420700000009  9.4480477000000000
 16.1106857900000016  2.1459805400000000 13.3861331000000003
 15.8888526599999995  4.1968856800000003 16.3873705399999992
 16.0305131100000011  7.3217029499999997 18.3673216100000012
 15.6103233699999997  9.2314747700000002 20.6795377400000007
 15.7699180800000001 11.8195883800000008 -0.0327606000000000
 16.0760273799999993 13.6599798499999991  2.4389659500000000
 16.0447227099999985 15.3928746699999994  4.8843859299999997
 16.0429576999999988 17.9904852099999992  6.4717285699999998
 16.5540945599999993 20.0083421600000015  9.2890955900000005
 16.5561643399999987 22.5965134100000000 11.4579865900000009
 18.0447413999999995  2.4706804000000000 16.1394712899999995
 18.4458782899999996  4.5542578499999999 18.6822082499999986
 18.0125430000000009  6.9448639900000000 20.8659345700000003
 18.1606980000000000  9.5903275699999995 -0.0663102900000000
 17.9576579400000007 11.5555630199999992  2.2868186300000000
 18.0971793599999984 13.5205347699999994  4.7901310900000000
 17.9758084899999986 15.6242453399999999  7.2734703100000004
 18.3245854600000015 17.8385669299999989  9.5884640300000008
 18.3283169800000003 20.3305389100000014 11.6215869000000005
 18.6327840999999985 23.2031019100000009 14.0610575999999998
 20.5191749600000009  2.5104264600000001 18.4652215499999990
 20.6382211200000008  4.5152952300000004 20.7168405200000016
 20.5255667099999997  7.1410147000000004 -0.1734812500000000
 20.2025974700000006  9.1027625899999993  1.8835952300000001
 20.5082298899999991 11.7102062199999999  4.6127142399999999
 20.1973255300000005 13.9669316800000001  7.0026099500000001
 20.3945916599999997 16.0373472300000017  9.4750654700000005
 20.3655414599999993 18.1271153699999985 11.2040241500000004
 20.8189922799999998 20.4650247299999997 13.8264333399999995
 20.6719448399999983 23.3158446400000017 15.9725542600000008
 22.9574064699999987  2.5403139000000001 20.8397635799999996
 22.6028927599999996  4.7400339300000001 23.0472471699999986
 22.8647814199999999  7.0910949099999998  2.2024297200000000
 22.3397922800000011  9.0420180899999991  4.2084530700000000
 22.0502516499999999 11.3690841000000002  7.0984342700000003
 22.3318437000000003 13.0708261300000004  9.2878042999999995
 22.9113295299999997 16.0226658700000009 11.2359305099999993
 23.3505754100000011 18.1352454099999996 13.4461299299999997
 23.3888169999999995 20.4377642399999999 16.1024576400000008
 22.6834520700000013 23.6966809400000002 18.1879111500000015
  4.6554100500000004  4.5116284300000000  0.3569284700000000
  5.0217207500000001  7.1576414000000002  2.2356787900000001
  4.7190005800000003  9.1665391799999991  4.7502953100000003
  4.4839620699999996 10.9963047599999992  6.9965978000000000
  4.5393504199999999 13.7986983900000002  9.3971197400000008
  4.1266444299999998 15.9398998600000006 11.0298815799999996
  4.1214621899999999 18.5381496199999987 13.2097431000000007
  4.2997041200000004 20.5597761400000003 15.8234895899999994
  4.7035369300000003 -0.1838605700000000 17.7206299200000004
  4.6430174099999997  2.4861797200000000 20.4293761899999993
  7.5153457599999998  4.7406036499999997  2.2430827299999998
  7.1424103800000003  6.9323427500000001  4.6721564200000003
  7.0177318499999997  9.3608146500000000  7.0569296499999998
  6.4189282900000002 11.8952836600000005  9.5236453900000004
  6.5149975700000002 13.8280713899999999 11.1292859899999996
  6.5996729500000004 16.3623145799999996 13.3054802799999994
  6.4314492599999999 18.2775217999999988 15.3592682499999995
  6.6524964500000001 20.5071579700000015 17.6493597199999996
  6.6080559699999997 -0.0608264300000000 20.2564146399999991
  6.9271605100000002  2.4515153800000000 22.8451096699999994
  9.5806755399999997  4.8647752700000000  4.3522726599999997
  9.2819600900000001  6.7540703799999999  7.2488585199999997
  8.8558025600000008  9.7118735899999997  9.2282526300000001
  9.2336171999999994 11.9298189899999993 11.2780051300000004
  8.7231883200000002 13.8833822500000004 13.2297748100000003
  9.1109355999999995 16.0269985800000008 15.3637848399999992
  8.5971234800000005 18.1151619799999999 18.1832559499999995
  8.7754052500000004 20.4922970900000010 20.5007431699999998
  8.2949979400000000 -0.0250847600000000 -0.1455685700000000
  9.1349865200000000  2.1333318100000001  2.2440839399999999
 11.7832639100000005  4.4680013599999997  6.5652154700000001
 11.4348908300000005  7.0982061400000003  8.9570081399999992
 11.1612528399999995  9.0215621800000001 11.1953435500000005
 11.3525582299999996 11.4932548800000003 13.3709997099999995
 11.2795943899999997 13.6635544400000004 15.1403360399999993
 11.1931773299999993 15.8005145400000000 17.9835046799999994
 10.9050277500000004 17.6655775700000000 20.9267235199999995
 11.4105891699999997 20.0642495200000006  0.0694751000000000
 10.8628493800000001 -0.2673523200000000  2.1511781200000000
 11.6572825400000006  2.3313326700000001  3.8045235700000002
 13.9402911899999999  4.6139533200000002  9.1908309999999993
 13.2690199700000004  6.3754179999999998 11.8996593799999992
 14.1587763599999992  8.5982482800000000 13.1115238099999996
 13.3510506600000003 11.3809080500000004 15.4996680999999992
 13.5305604400000004 13.5628684199999991 17.7620325600000015
 13.3554563500000008 15.3643474799999993 20.1156286699999995
 13.9402662500000005 17.6593667699999983 -0.0879532800000000
 13.5183388600000001 20.2297606600000002  2.1820447800000000
 13.6615008899999992 -0.3013398700000000  4.0232819099999997
 14.0626830399999996  2.0500581599999999  6.9536771399999999
 16.3185648599999986  4.5204750999999996 10.9235947400000004
 15.8722593700000001  6.6559825300000002 14.0167072899999994
 16.1841630300000006  8.7531444999999994 15.8587036200000000
 15.8254879800000001 10.9585117299999997 18.1507515099999992
 15.7692081799999997 13.4394721399999995 20.0571310800000013
 15.5380296300000005 15.6230338100000008  0.1029499600000000
 15.4081052100000004 17.6974225599999997  2.1901780000000000
 15.9231723800000005 19.8581256900000014  4.5536190100000002
 16.0692262700000015 -0.4715169700000000  6.3853242000000003
 16.2950879399999984  2.0707887000000000  8.6885767600000001
 18.6182777799999997  4.0710287000000003 13.8113817599999997
 18.2577183800000000  6.8861025500000004 16.3242503499999998
 18.1420674800000015  9.6179082600000001 18.5381151899999992
 18.2583305299999985 11.3697754999999994 20.6072384200000016
 17.9718981900000010 13.4883223000000001 -0.3279635000000000
 17.8348884100000014 15.8124025800000005  2.7649000099999999
 18.2930708899999992 17.9198164499999990  4.7198615600000000
 18.6097557000000009 20.4260561000000003  6.8924155599999999
 18.1783135899999984 -0.0720241100000000  8.9288650500000006
 18.6092344400000016  2.6797077100000002 11.0987796200000002
 20.6090277700000009  4.2915474099999997 16.3941589800000003
 20.2450835900000001  6.7747270999999998 18.5731853700000009
 20.0822886599999997  9.2546547399999994 20.5947882799999995
 20.5314865100000006 11.6487632699999999 -0.2005366500000000
 20.2112007399999989 13.8852688900000008  1.9121338100000000
 20.6741623600000004 16.4997858700000002  4.5270211800000002
 20.5477791399999994 18.2333942100000002  7.1347373000000003
 19.9976462099999992 20.6880381200000016  9.3456180900000003
 20.9376894600000014  0.1382458500000000 11.3106772000000007
 20.6587890200000004  2.7573907400000000 13.7614149500000007
  0.3026704800000000  4.7505687800000000 18.0276270099999998
  0.1864528600000000  6.2992728600000003 19.9388323199999995
 -0.4590525300000000  8.9537446400000000  0.0702701600000000
 -0.3618698400000000 11.2559000099999995  2.6751210900000002
 -0.3100189700000000 13.8744049599999997  4.4631858600000003
 -0.3110053600000000 16.3077914200000009  6.6056000600000004
  0.1561169500000000 18.4797608300000000  8.8054816500000008
 -0.0143779300000000 20.5582684899999997 11.5419587600000000
 -0.0214090500000000  0.2176327900000000 13.3900794500000000
 -0.2003784000000000  2.9181271400000002 15.6279769000000002
  2.5628696899999999  4.7733421700000003 20.7405237900000010
  2.2919929600000000  7.1843305500000003 22.8443815800000003
  2.5651960900000002  9.2492190799999996  1.9075638900000000
  2.2376348899999998 11.5804206599999997  4.8508120600000000
  2.2155447399999999 13.6830913400000007  7.3505374799999998
  1.9655897700000000 15.4829511199999992  9.1464688499999998
  2.2559960299999999 18.5154723700000012 11.2243035399999993
  2.5813995300000001 20.8913701100000004 13.5302737000000004
  1.8572604699999999  0.2850662100000000 16.1799368699999988
  2.5760036600000000  2.1705112000000000 18.3182651599999993
  7.4384513400000003  6.4014448300000000  0.0276844900000000
  7.0682392299999997  9.1079887199999998  2.4950461100000001
  6.8321358099999996 11.7970691900000002  4.7048136800000000
  6.5338194800000000 13.7341482399999997  6.8075138700000002
  6.6671402500000001 16.3886829899999995  9.1517045100000001
  6.9690622099999997 18.4258356200000009 11.2383079400000003
  6.7618422000000002 20.8431690900000000 13.6636596899999994
  6.8859961099999998  0.0951510100000000 15.5556182500000002
  6.6977798899999996  2.5474705700000002 18.1705718000000012
  7.1341148499999996  4.5258353099999997 20.7971053300000008
  9.4110057900000008  7.0973138300000000  2.2128447800000002
  9.0296459099999993  9.3309363600000008  4.8914821399999999
  8.6855485199999993 11.6823549700000004  6.2291917100000003
  8.7571853599999994 13.6501601600000004  8.5644412899999995
  8.9202315300000006 15.3753866499999994 10.6471108700000006
  9.0412450700000004 18.1399603800000015 12.9232944100000005
  8.9615547299999996 20.0144936999999992 16.0418449199999991
  9.0110086400000000 -0.1323086700000000 18.1305969599999983
  9.5602005400000003  1.8050311800000001 20.7090245400000015
  9.8463281600000006  4.4792883100000003 22.5123941800000011
 11.4757201799999997  7.0349909000000004  4.3105313199999999
 11.6398895099999997  9.2497218199999995  6.0033938600000001
 11.2433207199999998 11.4030631299999996  9.1104307200000001
 11.2227686999999996 13.7573123400000004 11.3918014200000002
 11.0803303199999998 16.2694495500000009 13.1045887099999998
 11.0448825900000003 17.9584350599999993 16.3335498200000018
 11.2330608600000001 20.5899740499999986 18.3579332199999996
 11.3760063799999998 -0.1100645900000000 20.7848218699999983
 11.2283322499999993  1.9949642500000000 -0.0889046900000000
 11.3445957300000000  4.7060000200000003  1.9576393400000001
 13.5653173999999996  6.7160805400000001  6.6969585900000004
 13.7040115799999995  9.2942047700000003  9.3907730100000002
 13.3814198399999995 11.6076515400000009 10.9082572199999994
 13.2597702099999992 13.0888553099999996 13.4971303700000007
 13.7899594099999998 15.4962407300000002 15.6755540399999997
 13.5629566700000002 17.2525975600000017 18.8677704599999991
 13.5858994899999992 20.1912210999999999 20.9641363500000004
 14.1680858700000005 -0.1707543300000000  0.6362201900000000
 13.0558156299999997  2.2536083599999999  2.1211502200000001
 13.1234661599999995  4.4582443899999999  4.0433416800000002
 16.0023020400000000  6.7676280999999996  9.0768758500000004
 15.8080872200000009  8.7050140599999999 10.9386428999999996
 15.7315752799999995 10.9799221199999995 13.1565228300000001
 15.4598233999999994 13.0416830600000004 16.0703958100000008
 15.7831386800000004 15.6410812600000000 18.1972275799999998
 15.9059741700000004 17.6306530399999986 20.6335954500000014
 15.6933068299999992 19.6471630600000005  0.7085225700000000
 16.0582260300000002  0.0119237000000000  2.4265830300000002
 15.8229328000000002  2.3869368799999999  4.0831602699999996
 15.8559824400000000  4.3642161300000000  6.4950644400000002
 18.0543742400000014  6.2093007499999997 11.5590138699999994
 18.2575864699999997  8.8435937599999992 13.5353024299999998
 17.9284620799999992 11.3272770099999995 16.3692012499999997
 18.3575540400000001 13.7615468399999994 17.8945055400000008
 18.4998466300000004 15.7712020099999997 20.3139217199999997
 18.2657744499999986 17.7580351500000013  0.1174374700000000
 17.8932691000000013 19.9992989899999998  2.2436615899999999
 18.3488536199999999 -0.0339398400000000  4.4754725000000004
 18.0920084800000005  2.0629403300000000  6.4087947500000002
 18.0438564200000009  4.2236497300000000  8.7749459400000003
 19.7490169000000009  6.7316547000000000 13.7340287599999993
 20.1504122000000017  9.1528461199999995 15.9707774499999999
 20.5358231700000005 11.3481745299999996 18.5079081199999997
 20.3194763599999995 13.7831447399999991 20.3174149200000009
 20.5758840999999997 15.5598281400000005  0.0098657000000000
 20.2252675000000011 18.1296674200000005  1.9548506100000000
 20.3886138400000014 20.4650701200000000  4.2175147199999996
 20.3938555500000014  0.0414183500000000  6.5140656100000003
 20.9377447600000011  2.3833270999999998  8.7915244099999992
 20.4845075500000000  4.6640494199999996 10.7874172599999998
 -0.1586889700000000  6.7565688899999996 15.7501014700000006
 -0.2365739900000000  8.9459434099999999 17.7783172600000015
  0.0992420500000000 11.1667719299999995 20.1348842899999987
 -0.3675155700000000 13.6235305600000007  0.2249203600000000
  0.1092041300000000 16.2402847799999996  2.3665212499999999
 -0.1552557000000000 18.7718463200000016  4.6304731700000001
  0.0066142300000000 20.5996225099999997  6.8111184800000002
  0.4563509000000000 -0.1369867100000000  9.3793102499999996
  0.1628188400000000  2.2926575699999998 11.3157699899999997
 -0.3897903000000000  4.7402566799999999 13.2183007799999999
  1.9014497200000000  6.7532215500000001 17.9010935000000018
  2.3760204599999999  9.0167786299999992 21.0162385200000017
  1.7490883399999999 11.2424299500000000  0.0576703400000000
  1.6349008199999999 13.5159325599999995  2.0439102500000002
  2.0435089999999998 15.9891424200000003  4.5845003499999999
  1.9188514600000000 18.4806024800000017  7.0753758400000004
  1.9811909599999999 21.0544429300000004  9.0807658100000008
  2.4932155499999999  0.2013061800000000 11.6180352399999993
  1.9844484700000000  2.4976588700000000 13.9751278699999997
  2.5720790999999998  4.5988235900000003 16.0377915000000009
  4.5946403199999999  6.7859485800000003 20.7814065300000017
  5.3768373199999999  8.9477540300000005 23.0789825399999984
  4.9298755300000003 11.8848348200000000  2.6213943899999999
  4.1768419699999999 14.2202771600000002  4.8293812799999998
  4.5405154699999999 16.2616435400000015  7.2491150500000003
  4.0921479999999999 18.4905908600000011  9.2994922700000000
  4.6274715999999998 20.7932254699999994 11.2878928999999992
  4.8662163800000000  0.7757783900000000 13.7264355299999998
  4.4961077999999999  2.5197569899999999 16.1275853100000006
  4.5900239899999997  4.6187080600000003 18.3915730199999992
  8.9687115899999998  9.2658358300000003  0.0611928700000000
  9.2404594299999996 11.6847503300000000  2.6203817300000001
  9.5827623499999994 13.8733524700000004  4.4922348200000002
  9.0440589100000004 15.7030123699999997  7.0520037899999997
  8.7911765499999994 18.1626603399999986  9.2167347399999997
  9.0793492400000009 20.4031794600000005 11.2850217700000002
  9.2348414900000009 -0.4804900500000000 13.4597991500000003
  9.3802468200000000  1.9095864100000000 15.9891441400000005
  9.6814101099999998  4.5593630699999999 18.4410260500000014
  9.2855895999999998  7.0858654100000003 20.0344083399999988
 11.3723567800000005  9.3614529999999991  2.3641188799999999
 11.3858957899999993 11.3801943800000007  4.7511773300000000
 11.7788345099999994 13.1894792100000000  6.9507763100000002
 11.5513741499999991 15.9968266999999997  8.5961596100000008
 11.6388011000000002 18.4109787599999990 11.0284704300000005
 11.2332719000000001 20.9604012900000001 14.0802516200000003
 11.2279009100000007 -0.3947743900000000 16.3471048600000017
 11.4102533400000006  2.5470568800000000 19.0648017000000003
 11.6864383400000005  4.7084578500000003 20.1493172499999993
 11.6842216899999993  6.9513111800000003 22.6322767099999993
 13.5903520100000001  8.7332183899999993  4.2830811200000003
 13.5383092699999992 11.2355103100000004  7.0710478600000002
 13.7339155599999998 13.5835181299999999  9.1924560599999996
 13.8095290800000008 15.5444040999999995 11.2540269100000003
 13.0630080199999998 18.0526120200000015 13.6415688199999998
 13.6559217200000003 20.0447442100000011 15.8825919599999992
 13.7912930899999999 -0.1444938000000000 18.4852999500000017
 14.1322938899999997  1.8890520700000000 20.9928965299999994
 13.1903436299999992  4.7049520200000003  0.3050848400000000
 13.3425980099999997  6.9171119399999998  2.8043966000000000
 15.7323828300000006  8.8834898500000001  6.8905497799999997
 16.1750925899999984 11.6654800299999994  8.5551713700000001
 16.1901624700000006 13.3847264599999995 10.9077691500000000
 15.4785331999999993 15.2522575000000007 13.6947670200000005
 15.1536439600000001 18.2998299600000003 15.9559946799999999
 15.6194836200000005 20.4699087700000000 17.8689200899999996
 16.0000178999999996  0.3155356900000000 20.8425217099999998
 15.7831904800000000  2.6635537500000002  0.3947163600000000
 15.2732671700000004  4.7126623399999996  2.6807131599999998
 15.6248272900000007  7.0031600599999999  4.9399019700000002
 18.0273373899999996  9.1133375000000001  9.2565750599999994
 18.3857566100000014 10.9893927399999995 11.3248217800000006
 18.2850933500000004 13.3165252699999996 13.4318662199999999
 17.8791010899999989 15.7407800600000005 15.3350371600000006
 18.5114986399999992 18.4646630400000014 17.7969038200000007
 18.0768845099999993 20.4780756199999985 20.6019532100000013
 17.6496894699999984 -0.2926525400000000  0.0708623000000000
 18.1617937500000011  2.0568623700000002  2.4732698499999999
 18.5183105899999987  4.8930851200000003  4.5098664900000003
 18.2623447900000002  6.7039490700000002  6.4458524099999996
 19.9400957699999992  9.0404527399999992 12.0248462299999996
 20.1540919500000015 11.3567468300000005 13.9858302299999995
 20.1219746199999996 13.5766613399999994 16.3116650199999995
 20.3655000100000017 15.5478991200000003 17.8533068499999992
 19.9164914800000012 18.4686523700000009 20.5463301300000012
 20.5430570400000008 20.7529967900000010  0.1388306400000000
 20.6525128199999983 -0.2933659200000000  2.2318585400000002
 20.8881576899999999  2.3200088800000001  4.2661800300000001
 20.3839337799999996  3.9879261100000001  6.7555109699999996
 20.0462858500000003  6.7995447999999996  9.3604502200000006
 -0.8156048900000000  9.1850666000000007 14.1968476700000004
 -0.3137836800000000 11.5166165199999995 16.0581343399999987
  0.3451614200000000 13.3087622000000003 17.9681845899999999
 -0.3814466000000000 15.4127165799999997 20.4224825900000013
  0.3833614700000000 18.3493450699999983 -0.1938062100000000
  0.4420743300000000 20.1662158900000001  1.8926274300000001
  0.2068635100000000  0.0371994700000000  4.4897039599999999
  0.4495048000000000  2.0364976100000001  6.6851277400000004
  0.3634215800000000  4.6781151500000000  8.9568144899999993
 -0.1708467200000000  6.8825880100000001 11.3975743699999992
  1.6622825200000000  9.0362877499999996 15.5886744999999998
  2.3835245800000000 11.0892610400000002 17.4854179899999984
  2.1288207600000000 13.6602216399999996 20.4287315400000011
  2.3555243699999999 15.7305472799999997  0.3598875100000000
  2.3189378000000000 18.3492499799999997  2.1218404700000000
  2.4149600200000001 20.4043396600000015  4.5458046400000001
  3.0043975600000001 -0.1269157800000000  6.8404692499999999
  2.5074187900000000  1.8561753500000000  8.9871910899999996
  2.5130753399999999  4.5192754400000004 11.2215975500000003
  2.0457233200000000  6.5735164299999997 14.0152014800000000
  4.6857895699999998  8.8973452099999992 17.9298267699999982
  4.3058492499999996 11.2360692100000001 20.8274250499999987
  4.0029619399999996 13.5542744800000001 -0.2514580000000000
  4.6539938100000002 15.6337979899999997  2.3956201500000001
  4.1939430900000003 18.0757714900000011  4.0394516300000003
  4.5996902200000003 20.1368314599999998  6.7326126700000000
  4.5672555900000003 -0.2369005800000000  9.1939894800000008