Li                                      
   1.00000000000000     
    22.7325000000000017   -0.0000000000000006    0.0000000000000000
    -0.0000000000000006   22.7325000000000017    0.0000000000000000
     0.0000000000000006    0.0000000000000006   22.7325000000000017
   Li
   500
Direct
  0.0032439793247576  0.9974365872649287  0.9868247795007150
  0.9935876727152788  0.1104325357967681  0.0993549429231280
  0.0116894111954267  0.2042945470141859  0.2049359326954772
  0.9831146895414022  0.3106984999450120  0.3069905461343865
  0.0028297006488529  0.4018080065984790  0.4162920761024935
  0.0086300481689179  0.5108895392059836  0.4811864352798878
  0.0079201702408440  0.5829666490707126  0.6189613421313069
  0.9881931780490518  0.7010247975365687  0.7004554232926452
  0.9882630119872431  0.7930000646651294  0.8084697793907409
  0.0019687038381164  0.8845289528208511  0.8929275992521752
  0.0975916260860004  0.9804543191465953  0.1033586129990098
  0.0934677316617183  0.1017255990322212  0.1977628259100399
  0.1061431153634658  0.1997742804354985  0.2949469618387752
  0.1019130060486120  0.3001683070493755  0.4077960140767658
  0.0874343459804265  0.3986782192895646  0.4987375765973852
  0.0942824212031255  0.4985195614208706  0.6112706574287898
  0.0938540829209273  0.6102783046299365  0.7113548039150999
  0.1005652079621697  0.6994657503574189  0.8005826495106092
  0.0976417384801493  0.7984216007918192  0.8920141942153279
  0.0973833427911615  0.8917481513251957  0.9865345404157040
  0.2068540494886193  0.9930855317277008  0.2103318394369325
  0.1908252651490159  0.1118241746398354  0.2972411208622034
  0.2101003875508667  0.1920800347520100  0.4028237972066435
  0.1880991298801291  0.2918403633564282  0.4985062663587385
  0.1934190467392511  0.3914744568349278  0.6022722604201007
  0.2043236938304176  0.5047441236115660  0.6990572647091184
  0.1967417437589347  0.6009161174529822  0.7975177116463215
  0.2016579632684454  0.6923356190476184  0.9091935370064874
  0.2129581414274710  0.8035846404926872  0.0025423112284173
  0.2086988760585058  0.8869130729132308  0.1018525846255329
  0.3091627784009674  0.0124966589684377  0.3035525925437170
  0.3060187678433977  0.1127642485428382  0.3945818497745535
  0.2884563162872524  0.2096833872209416  0.5038071888265705
  0.2928147128560425  0.3071570751127268  0.5941562243484029
  0.2848796991092044  0.3993958953040817  0.6982303846915201
  0.2979015818761681  0.4828117109864749  0.8066405762674549
  0.2947210597162666  0.5909279846035389  0.8980311650720338
  0.3082201046959199  0.6955132422742736  0.0064509341251480
  0.3163660903992067  0.7932967812603096  0.1078588408665979
  0.3105574767403496  0.8985407825800067  0.2056649484218624
  0.4014859038821044  0.0012339192785689  0.4136686277356176
  0.3957771529748157  0.1242515266688642  0.5101511721104117
  0.3911413614868593  0.2193619469921941  0.6129989165292002
  0.4007476106895425  0.3022415937534362  0.6894276252061999
  0.3895951628725385  0.4051110559771232  0.7938398834268128
  0.3957431558341611  0.4879797448586842  0.8980985659298355
  0.4128387858792451  0.6040874919168573  0.9922690689541440
  0.3986249268668232  0.6972432002639408  0.1000830630155036
  0.3884491265808876  0.7826595904541946  0.2197010843505964
  0.3846959744858651  0.9087114879577669  0.3037860420103371
  0.4914328507643262  0.0233419263169452  0.4954786987792801
  0.4895101330693947  0.1333757857692746  0.6190611160233175
  0.4946563545584510  0.2034442604201061  0.7027536632574538
  0.5093778233806248  0.2908257591553962  0.7987584260420135
  0.5061035856153069  0.3998234703618166  0.8982328490047280
  0.5102688221709002  0.4883761315297477  0.9967999216980061
  0.5109073766633685  0.5885265320576281  0.1018421436269676
  0.5108315891344972  0.7080116590784087  0.2135890561970726
  0.4976344058066644  0.8062062404047055  0.3228554905971635
  0.4986529383041898  0.9056006902012541  0.4051226129990084
  0.5887332647091199  0.0116055414054799  0.5885410509182876
  0.6150559916419240  0.0961859293962419  0.7065518460354099
  0.5910415629605197  0.1882766083800718  0.8126008863961260
  0.5993498062245664  0.2908092581106345  0.9081705263389424
  0.5911571516551177  0.4018055194105372  0.0026387229737139
  0.6070147278126043  0.4853856522599784  0.1166513766633699
  0.6012321825580145  0.5904090091279031  0.2029741999340118
  0.5940429301660615  0.6909142470031924  0.3037705492136809
  0.6027663732541484  0.7855096856922898  0.4006160422302898
  0.5890244258220605  0.9130142619597521  0.5053393964588153
  0.6926717646541292  0.0054013086989997  0.6941523022104903
  0.7046974565050022  0.1044479410535573  0.7981288696799709
  0.6838259971406586  0.2017373311338417  0.8965557884086692
  0.6911761596832733  0.2947873357527797  0.0128743473001194
  0.7010553045199615  0.3897571019465502  0.1049602692180827
  0.7100339544704752  0.5072374041570455  0.2000235240294757
  0.7083275306279546  0.6016229710766510  0.3068441055757205
  0.6940770905091824  0.6902202098317360  0.3798628474650840
  0.7055205432750498  0.8016811213021029  0.4954024731111843
  0.6796907401297716  0.9058356058506547  0.6032329682173128
  0.7994751246013436  0.9812550392609722  0.7862675557021888
  0.7938377252831827  0.0983330658748471  0.9082509090509205
  0.8028345008248081  0.2049426842626190  0.9854912895633987
  0.8028163989882344  0.2876170161662799  0.1022798337182422
  0.8044016082700978  0.3902851177829092  0.1855259016826096
  0.8108743631364774  0.5051296579786637  0.2884263503794102
  0.8092339527108763  0.5982838117233058  0.3845982667986334
  0.8075417917079051  0.7113469979104821  0.4913508083140883
  0.7957075407456315  0.7980877149455594  0.5864177182448032
  0.7966864880677420  0.8919685855053316  0.6821881346090422
  0.8908964953260750  0.9831269499615090  0.8987169985703289
  0.9029442652589879  0.0994265236995489  0.9933277593753402
  0.9087909693170602  0.2068179896623761  0.0953905228197485
  0.9061212383151869  0.2977782940723657  0.2000856606180577
  0.8924827762014758  0.3804429486418144  0.3020262663587374
  0.9173647522269874  0.5109536817331986  0.3990931287803789
  0.9015306235565816  0.6127395218299796  0.5144887033982215
  0.9004446858022632  0.6921377653139800  0.5913194822390864
  0.8911065549323638  0.7951359344550752  0.6991986869020153
  0.8969424436379612  0.8868576012317178  0.7971037857692735
  0.0970429345650530  0.0984606792037823  0.9972888753986595
  0.0900629719564492  0.2162203215660412  0.0907310546574323
  0.1015616139887854  0.3139884293412507  0.2069879010227638
  0.1007297037281418  0.3978918693500475  0.3063260499285150
  0.1151144511162414  0.5022453610469597  0.3979489427031808
  0.0866707867590435  0.5883119542505213  0.4960497639942787
  0.1132390942483212  0.7016761306499504  0.5949811138238204
  0.0982962296271879  0.7810184282415022  0.6981569906521514
  0.1071844121851981  0.9048025610909463  0.7982875992521699
  0.0952954021774985  0.0084172479929592  0.8798620116573161
  0.1986561566039811  0.1085001060156188  0.1083485657098890
  0.1883695026943784  0.1963994721214135  0.1982863217859858
  0.2004548179918615  0.3008860156164062  0.3002710709336824
  0.1953621123941502  0.4045430005498716  0.3966444139447916
  0.1993782267678412  0.4846740895194088  0.4967036801935549
  0.2045851820081381  0.5740475015946345  0.6033591307599266
  0.1925258994831154  0.7037530421203115  0.7011983327834628
  0.1977653205762664  0.8029195640602680  0.8028067352908863
  0.2045153634664061  0.9019277589354431  0.8976990036291639
  0.1796029314857606  0.9929390559771250  0.0049731569339073
  0.3039922340261754  0.1026703235455813  0.1962652202793365
  0.3014438548333871  0.2037638724293416  0.2834024792697676
  0.3028916322445809  0.3019004354998316  0.3870024656329036
  0.2956236568789166  0.3747412682283056  0.4998916309248855
  0.3098505399758054  0.4690098748487870  0.5834021361486847
  0.3161666358737492  0.5951971842076347  0.7214312112614110
  0.3047879907621223  0.6991499755856125  0.7925835073133172
  0.2927207306719453  0.7910383477400202  0.8975833533487290
  0.3129525195205076  0.8970225874848765  0.9926064889475441
  0.2888104374793770  0.9941793119982378  0.0971734239524906
  0.4051494226327961  0.1142465373364132  0.3040156643571947
  0.4115214741009581  0.2085282054327493  0.3993123369624954
  0.4185120545474561  0.2945987546464295  0.4935478807874176
  0.4039243330034097  0.4045295194105378  0.5907576755746149
  0.3981864018475747  0.4697561733201354  0.7118908597822511
  0.4015583341031572  0.5925802186297133  0.8009862126910789
  0.3888948949741575  0.6945430014296718  0.8954614164742125
  0.4190111017266034  0.8084225448146896  0.0095419953810634
  0.4096247324315385  0.9068216342241300  0.0973078623116663
  0.4004961966347764  0.0186436661167946  0.1966918645111591
  0.5036395161112921  0.1238801517650927  0.4019326519300535
  0.5092529145496556  0.2033804420983145  0.4960647781810152
  0.4996587462883539  0.3010707577257250  0.5992550229847140
  0.5049491120642244  0.3826073608270093  0.7040634474870799
  0.4979142192895623  0.4802961033762259  0.8072182637193421
  0.5117008969536982  0.5976210605960617  0.8999940732431568
  0.4965472803255224  0.7025179984603511  0.9963816144286781
  0.4978406356538017  0.7824649075112688  0.0953127007588250
  0.4927491560541100  0.9081434131749688  0.2051776474210953
  0.4859170495985907  0.0031307775211715  0.3099362591004038
  0.6053968050148484  0.1212598882656977  0.5136495312878040
  0.6113473529088296  0.2102117439788813  0.6128118975035761
  0.6054205291982839  0.3044895233696252  0.6961625945232583
  0.5953345078631926  0.4110139505113821  0.8187285428351458
  0.6001311883866691  0.5091369638183210  0.9037679648080967
  0.6035533839216995  0.5959805648300858  0.0137605564720147
  0.5813239168591195  0.7109848441658428  0.1096969009127875
  0.5945457798306393  0.8062966484108642  0.2120602797756490
  0.5964240369515039  0.9106473801825601  0.3183046721654037
  0.6006371740899610  0.0099709904322012  0.4190077840096791
  0.6965402828549401  0.0979092937424397  0.5975780516881102
  0.7024201262509635  0.2082062500824833  0.6786946992191787
  0.7126767909380831  0.2899154188936564  0.7948414331903635
  0.6899407249532601  0.3872811217419994  0.9063558205212772
  0.7006680219949430  0.4960911144836686  0.0120344370394818
  0.6961532541515467  0.5959883853513688  0.0952875601011769
  0.6863557734521066  0.7087666301550613  0.2076850408006123
  0.6958922577807130  0.8160122947322108  0.3026555350269433
  0.6991561205322796  0.9087281557241838  0.4160417829099288
  0.6999183912900051  0.0050444847685043  0.5061885520730200
  0.8058788962938550  0.0939434919168605  0.7039314589244441
  0.7977568182118091  0.2017338572528331  0.8038139672275406
  0.7987153775431679  0.3064973452106017  0.8884405397558552
  0.7967402371054675  0.4016044764104265  0.0171027577257234
  0.8138559678873847  0.5026037483778723  0.1156424691520925
  0.7975452277576167  0.6235560461893783  0.2070219751457145
  0.8158003330034092  0.7027058462553626  0.2982974208731974
  0.8021242762564640  0.8176133192565729  0.4070676045309582
  0.7935662575607623  0.9016933148575816  0.5000458590124239
  0.7989649088309676  0.0010235205102802  0.5985578964038254
  0.8995912970416811  0.0945646387330896  0.8139365956230051
  0.8978615343670953  0.2078229613988753  0.8931142896733775
  0.9018257952270972  0.3123980662047714  0.9983278913449922
  0.9136024418783677  0.4071414191136071  0.1015371943253029
  0.9174778845265621  0.5126021049158709  0.1945104783899723
  0.9057356643571950  0.6133011820081364  0.2937681244913648
  0.8985296988892557  0.7102032301770578  0.4013229723963505
  0.9022031738700065  0.7954554378093022  0.5090710392609665
  0.8974897006488476  0.8831872671285623  0.5968690390410174
  0.8900327412295184  0.0126326105795656  0.6881028971736498
  0.9882649664577130  0.1060278192015858  0.9006089594193298
  0.9951385751677080  0.2026759511712299  0.9945642366655676
  0.0014738563730319  0.3149434369295037  0.0988862487627813
  0.0142049743758932  0.4087106948201935  0.1968054186737049
  0.0011224629935143  0.4992112455735196  0.3225882824150474
  0.9895420873199186  0.6070577697129664  0.3965136755746173
  0.9956151580336510  0.7006928987132994  0.5124203048498828
  0.9984530372814220  0.7988024880677429  0.6050598882656999
  0.9913801218519751  0.8877625874848789  0.6981041693610450
  0.9817132946222387  0.0013577635543811  0.8062572409545794
  0.2062577983063889  0.2177914857582763  0.9925843879907603
  0.1881948100736821  0.3100399586495115  0.1025828641812367
  0.1940722410645535  0.4058726171780478  0.2045281724403409
  0.1929441926756823  0.4987581933355330  0.2905837800505893
  0.2086001033762201  0.6026109354448508  0.4100288736390638
  0.2175899962608625  0.6900069609589821  0.4992732708677039
  0.2036280875398688  0.8021650456395051  0.6052018031452775
  0.1958851428571435  0.8939578027053798  0.6888765780270560
  0.2042988307489253  0.0133524852084008  0.7950519142197265
  0.1882773751237181  0.0967172576707327  0.8953091842076333
  0.2911080857802730  0.2001290636753552  0.0979557114263727
  0.2832182984713540  0.3146796463213448  0.1997485520730251
  0.2974149341251504  0.3946567619047627  0.3153299487517884
  0.2995312706477478  0.4950998016056332  0.3937313049598572
  0.3023622232486503  0.5890922547014199  0.4942806567689431
  0.2958749662377684  0.6926873001209728  0.6065233656658933
  0.2975088142527227  0.8142669222478816  0.7048535858352594
  0.3023051384581521  0.8994177538766053  0.8042621964148253
  0.2833347110964510  0.0008263816122280  0.9089914439678850
  0.2914485670295832  0.0956899289563395  0.9996148888155716
  0.3869931626525869  0.2109455805564693  0.1992767192345752
  0.4044141867370499  0.2988605591114037  0.2895724275816534
  0.3957170680743403  0.4047922868140361  0.3871149508413083
  0.4133664555152308  0.4930945483338860  0.4873211371384585
  0.3942220486088175  0.5838250878697906  0.5955791360387082
  0.4150980538876041  0.6954289044319779  0.6898717994061343
  0.4105501075552596  0.7966170056087094  0.7954402582206086
  0.3994031333993178  0.8888984146046397  0.8950652669086097
  0.3996210377213245  0.9904510577367205  0.9875195301880595
  0.3864125146816235  0.0957531644121872  0.0957050605960603
  0.5056964979654666  0.2144635288683574  0.2881540182558027
  0.5111344084460541  0.3061042868140333  0.3828913155174334
  0.5140002366655665  0.4032165182008143  0.4814449836137698
  0.5049967126360926  0.5013946332343551  0.6114385298581340
  0.4883189407236301  0.5714459074012979  0.7064281900362914
  0.4984211344990683  0.6912771956450001  0.8033805155614218
  0.4864619949411662  0.7969816944902703  0.9008576834927950
  0.4880043677554156  0.9095564025074196  0.0060621097547582
  0.4859238790278226  0.0079928890355205  0.0787497582755989
  0.4891401029363251  0.1143396999890030  0.1996259056417031
  0.6055915147915982  0.2041370262839521  0.3961356815132504
  0.5959215827559632  0.2853922964918070  0.4982621779390755
  0.5959969264269205  0.4082112011437360  0.5979580085780256
  0.6052340208951961  0.4901239164192219  0.7110561961948747
  0.5937418418563709  0.6008530487187969  0.7897572915429478
  0.5933727192345728  0.7047732462333656  0.9000988096337821
  0.6007427084570551  0.8221608767183568  0.0156729607390318
  0.5822183143077098  0.9013944863081491  0.0935912873639069
  0.5849667278126063  0.0131497824700304  0.2097452594303277
  0.5945480532277543  0.1084190700538841  0.2957326145386574
  0.7092795416254276  0.1977552156604006  0.5032057908281118
  0.7115595279885625  0.3056821027163750  0.5937693443308021
  0.7078096298251424  0.3909557118662690  0.6942886422522818
  0.6904583072693313  0.5044467784009683  0.7929853043000108
  0.6852459729462197  0.6152854428681422  0.8994529888925555
  0.6863839612889038  0.7129126827229726  0.0173673568679220
  0.6665309679973603  0.8112879172990191  0.1198777239634907
  0.6933729141097515  0.9012839164192243  0.1975405626305928
  0.6983341572638295  0.0087168168921181  0.2972808912350189
  0.7003305518530709  0.1074327962168695  0.3930686039810851
  0.8015032763664323  0.1887913938194217  0.5999312367755394
  0.8035087724623367  0.3002410276036542  0.6873297969866954
  0.7937667524469347  0.4137245063235468  0.7869434470471788
  0.7953642529418232  0.5005568036951473  0.9061103437809308
  0.7952096790938086  0.5977001266908601  0.0066329915319443
  0.7672995174309918  0.6956781629825173  0.0997942804354963
  0.8023518645111594  0.8009174982953908  0.2068499698669299
  0.7899456535796787  0.9084259553502676  0.3061586869020090
  0.7866237400197988  0.9956146292752663  0.4004041319696441
  0.7881452594303298  0.0949958768283281  0.4885968120532311
  0.8949120497085659  0.1875220684042702  0.7005904247223143
  0.8989767759815237  0.3097128529638198  0.8085256038711108
  0.9008947229737174  0.3948415092928599  0.8972074646431309
  0.9039791967447499  0.5037487456285064  0.9939137450786291
  0.9076620054987359  0.5991308751787088  0.0978965793467523
  0.9087838411965237  0.7087446330144047  0.1830529563400418
  0.9021464863081476  0.8093609541405442  0.3000418392169806
  0.8856619258770451  0.9062549825140209  0.4096736139887796
  0.9099806677664120  0.9919224414384686  0.5000723338832103
  0.9028254371494526  0.0924470880897417  0.5950588215110528
  0.9962382641592455  0.2038259874628849  0.7950110652150002
  0.9928083800725815  0.3032039111404359  0.9020333157373770
  0.9998250359617273  0.3967046910810481  0.9983424629935129
  0.9842959898823267  0.5042437738920071  0.0947318460354154
  0.0120917989662388  0.5883102799956035  0.2030294384691516
  0.0072709086110194  0.7241109970306852  0.2897987564060287
  0.0074916252061996  0.8091323343231025  0.4024934375893565
  0.9986349121302069  0.8990214714615661  0.4995764328604437
  0.0201586473111206  0.9984898400967808  0.6001688111734325
  0.9849084486967996  0.0835096592983646  0.7056807421093154
  0.1002227317716944  0.2006737551963056  0.8810469719564509
  0.0939729690971092  0.3035323224458395  0.9864095550423428
  0.0968374613438883  0.4119509028923360  0.1047257103266261
  0.0918615880347531  0.5007590775321660  0.2106531754096537
  0.1015460362916514  0.6072408221709011  0.3116200906191580
  0.0994624572748251  0.7082428712196176  0.4089089660178189
  0.1278731578137027  0.8044852501924566  0.5095632517321036
  0.1144719612889062  0.8947100842406215  0.6100009193885398
  0.0912667929176294  0.9901646479709640  0.7034543552182981
  0.0754297450786297  0.1001058057846720  0.7862988245903466
  0.3022734609039901  0.2944778400967749  0.9903291657318789
  0.2951002956120092  0.4096366818431747  0.1123729268668185
  0.3037450583965722  0.5109528806774435  0.1995534635433884
  0.2934171001869572  0.5929217683932677  0.2947609453425741
  0.3097622390850105  0.6880497842296265  0.3998431677114240
  0.3135629086110185  0.7897700046189371  0.4973697059276390
  0.3195088485648299  0.8923385496535801  0.6023962401847598
  0.3005670638953006  0.0005557021884997  0.6977813672055433
  0.3086047509072927  0.1044641843176066  0.7972529237875321
  0.2942627753216769  0.2023758649510583  0.8946059060816012
  0.3965246404926859  0.3056791549543618  0.0975742536016710
  0.3932177776311434  0.3966515222698774  0.1952986679863642
  0.4037565366765676  0.4891938264599176  0.2941741700208951
  0.4009341854173556  0.5993349605190801  0.4051720158363565
  0.3920245195205112  0.6870397092268803  0.5196198464753081
  0.4183976834927989  0.8040032284174643  0.6048518099637050
  0.4036310229847118  0.9071128230506957  0.6823165846255392
  0.3968313335532798  0.9818988083140852  0.8054666745848422
  0.3967617147256135  0.0815969127900615  0.8924187691630934
  0.3870826539096015  0.1955520189156488  0.9873392763664341
  0.4940852867040562  0.2847857798306421  0.2030657512372187
  0.4966989781150346  0.3915642529418264  0.2902431923457627
  0.5137964337402394  0.5026560980974395  0.3972316722753746
  0.5091851974045980  0.6004241856373014  0.5200688498845238
  0.5180138400967778  0.6908929387440921  0.6054034976355425
  0.5134978075442618  0.8051592508523058  0.7042743222258849
  0.4873083290443176  0.9126550779720688  0.8029866838227235
  0.5051349024524328  0.9969972748267892  0.8983445199604105
  0.4906533592873643  0.1087202005938650  0.9798063371824455
  0.4829900881997133  0.1838255510832525  0.0998242375453628
  0.6049400272737273  0.3027585984823489  0.2774412185197406
  0.6155719986803021  0.4000372941823400  0.3922302223688519
  0.6126942030133051  0.5009547638843088  0.4966583904102038
  0.6049426767843400  0.5967406893214573  0.6176320862201692
  0.5876627484878512  0.7003621972946235  0.6885164359397322
  0.5944770715935306  0.7949526039810877  0.8030311580336544
  0.5881925525129219  0.9053781119542492  0.8853669750357440
  0.5915556467612433  0.9989502623996458  0.9820621304300019
  0.6024388232706457  0.1066565124821324  0.0881738726492927
  0.6054228663807351  0.1901180930385991  0.1878487003189235
  0.6909376658968469  0.2990900468492228  0.3920357558561562
  0.7196367135158894  0.4010400866600676  0.5102825351369162
  0.7100221247113154  0.5128642634993952  0.6102645670295814
  0.7063345725283199  0.5950823877708160  0.7151981704607948
  0.6997539285164436  0.6952877536566575  0.7903857824700324
  0.7011811199824010  0.7975491406576509  0.8895791729902101
  0.6872892726272966  0.8921349332453516  0.0206793410315598
  0.6990629635983723  0.0078646532497544  0.0903059777851070
  0.7130475820961166  0.1031849827339713  0.1879066508303069
  0.7138576241064527  0.2096990361816751  0.2781385980424531
  0.8080382478829904  0.3065349996700775  0.5089630810513555
  0.8202750045089644  0.4120642349059693  0.6015876208072157
  0.7885388039151024  0.5064969968107320  0.6970222795557035
  0.7981617169251081  0.6027131037061508  0.8034995262289684
  0.7832287751017262  0.7028053245353547  0.9052912187396913
  0.7967848723193640  0.8132239964808079  0.0213244108655033
  0.8071770566369736  0.8976180648850800  0.1129748298691311
  0.7940830291432945  0.0060280127570635  0.2083344845485513
  0.8075161671615518  0.1001977305619732  0.3071733148575859
  0.8072610152864854  0.2065287073573074  0.4097284904871898
  0.9127896337842287  0.2978768406466514  0.5977787955570193
  0.9047712517321003  0.4131516406026634  0.6939299263169474
  0.8875194769602999  0.5074752644891660  0.8012826521500074
  0.8951129347849971  0.6046708602221500  0.9034529440228738
  0.8867244117452984  0.6904629816342265  0.0006861862971519
  0.9094587915979346  0.7880084152644926  0.0912400739030019
  0.8973545993621457  0.8896290412405179  0.2144360466292738
  0.9056942034532085  0.0018069908720975  0.3114643369625014
  0.9122751338392163  0.0899325168811203  0.4019667322115907
  0.9204646915209480  0.1978605261189941  0.4980927869789937
  0.9911527992961595  0.3124697274826786  0.6975084135048917
  0.9918045705487728  0.4062826077202217  0.8017359494116363
  0.9916909992301797  0.4955220622456835  0.8865694591443969
  0.9966124570548800  0.6058013513691876  0.9856617587154943
  0.0101216390630157  0.6925962322665811  0.1011866393929424
  0.0054917571758466  0.8110528978334983  0.1896193163972271
  0.0051640651050278  0.8964653790828123  0.3108357743319061
  0.0126333469701976  0.9891164420983145  0.4100849708567011
  0.0001744533157364  0.0905712367755385  0.4975594637633378
  0.0113213016606153  0.2046646514901553  0.6060694974155965
  0.0867680708237089  0.2999664436379632  0.8008233018805697
  0.0875929154294539  0.3972891573738053  0.8869421031562723
  0.0902663231056877  0.4960744603541158  0.9875396331243849
  0.1010081500054980  0.6118507854393513  0.0991189913119968
  0.1027199991202039  0.7030859967007572  0.1953353353128762
  0.1203102426041980  0.8040750282634974  0.2986725432750461
  0.1176051265808837  0.8929936883316856  0.4110500741229544
  0.1042357360607085  0.0025630880897367  0.5129509200483895
  0.0899735110524560  0.1056567201143750  0.6104169422632779
  0.0858797879687643  0.1928890245243622  0.7171840475090718
  0.2093164069064102  0.3025223310238658  0.8759489770152840
  0.1813140393709460  0.3976635856153052  0.9919145030243044
  0.1837157382601973  0.5092941757395764  0.1018404407786235
  0.1984678631914676  0.6015765432750442  0.2055632644891645
  0.2124136029913117  0.6899467722423864  0.3052768054547457
  0.2223711883866741  0.7882453724843259  0.3875360787418884
  0.2238976830528969  0.8935904462773578  0.5179524583745732
  0.2020721024964232  0.0026686664467164  0.6194138198614354
  0.1996519771252636  0.1018305017046046  0.7044472336962500
  0.2034242582206076  0.1877832121412055  0.7943162520620248
  0.4056813504893881  0.4063928551633111  0.9927116625975998
  0.4007872200593852  0.4948504084460552  0.0750933680853407
  0.4112715820961199  0.6024000189156524  0.1989637686132184
  0.4183862997910452  0.6970454683822709  0.3232391641922376
  0.3902593357527735  0.7855295999120173  0.4135619232376584
  0.4008210579566693  0.8989893632464501  0.5062062426042004
  0.4052856650170469  0.0232354087759816  0.5911166875618576
  0.4048205797866515  0.0953364086660073  0.7122722678983848
  0.3921778990432188  0.2159734631034880  0.8022433432310550
  0.3921894358297564  0.3165190854503450  0.8864324095458045
  0.4878150009897695  0.3925880303530178  0.1088719005828693
  0.4891456817331985  0.4952000980974347  0.1998820719234544
  0.5163915935334842  0.5853990111074481  0.2958956137688347
  0.5013135713185974  0.6904216311448366  0.4075707625646103
  0.5004934732211623  0.8018040263939312  0.4912408490047255
  0.5141063503794143  0.9092274861981764  0.5902087614648650
  0.4913068606620499  0.0044597936874524  0.7063502232486556
  0.4970899984603534  0.1070407421093122  0.8043310528978367
  0.4787530539975791  0.2077268558231609  0.8824262777961067
  0.4897255902342437  0.2837343332233573  0.9858515856153076
  0.6090301383481815  0.4034420521280140  0.1904879775651622
  0.6118325683492785  0.4902087720224344  0.2819159467722443
  0.5960181361486860  0.5891073168371292  0.3934115425052269
  0.6074856606180603  0.6873616214670619  0.4965233150775319
  0.5964165938634096  0.7954491982843948  0.5856396133289365
  0.5880223433410308  0.8994535911140460  0.6899466173980002
  0.5993138185417379  0.0090004878477927  0.7980952499725049
  0.5944286774441849  0.0910908188716562  0.9065374811393383
  0.5899747198944212  0.1864276054107563  0.9888960593863416
  0.5823263926097013  0.2900754734411066  0.0788555354668432
  0.7114456051908036  0.3976696289453443  0.2907405824260394
  0.6972111311998219  0.4982020019795428  0.3940555517431008
  0.7156840690641175  0.5979467370504779  0.4919494705817655
  0.7067161368085308  0.6917877021884991  0.5925019588694624
  0.7124127126360946  0.7982535299681075  0.6875574085560316
  0.7004177274826802  0.8892947027383684  0.7955721662817581
  0.6981196551193207  0.9895700257340820  0.8907145201803601
  0.6898314976355451  0.0942369840536657  0.0051844398988266
  0.6936451670515780  0.1905901968547212  0.0978680026393945
  0.7031648384471580  0.2941684258220576  0.1804781968547218
  0.8056561394479260  0.4029504304409954  0.3930482371054680
  0.8206815326075017  0.5051379685472313  0.4835384436379613
  0.7988747044979689  0.5934527126360933  0.5978549833938160
  0.7951561042560229  0.6938528965138033  0.6926107955570231
  0.8095132589904352  0.7890802058726507  0.8144208670405817
  0.8108788223908476  0.8890450737930280  0.9002759784449594
  0.7862872517321051  0.9878691098647323  0.0109242599802073
  0.7974463143077060  0.1056779082810948  0.0930644398988250
  0.8058609449026690  0.1815748193115567  0.2052480545474538
  0.7925650654349496  0.2975402133509277  0.2944672196194844
  0.8968878640712603  0.3903117791707942  0.4845523330034069
  0.9117387898383384  0.4986535695590035  0.5912266393929428
  0.8893238543934885  0.5971279885626330  0.6902189284064661
  0.8893553010007693  0.6890724574947740  0.8002116524799305
  0.8931231052457917  0.7979876256461012  0.9111004913669873
  0.9133095845155594  0.8989362124711349  0.9900536082700953
  0.9065433744638725  0.9947859113603883  0.0939024326404905
  0.9112692488727561  0.1074833111184432  0.2018610438799087
  0.8980371749697582  0.1941283717145055  0.2942407817002106
  0.9032027946772274  0.2960432543714973  0.4036266332343530
  0.0003473111184462  0.4167971173430089  0.6043559049818512
  0.0055205573518080  0.5182732365555935  0.7061324953260737
  0.0017653368525217  0.5917198183217849  0.8115009994501250
  0.9965127038381141  0.7049067669635960  0.8895825817661915
  0.0089039661277894  0.7832803457604740  0.0035742738370175
  0.9750358887055981  0.8902182012537097  0.0953980780820416
  0.9989246088199693  0.9974313867810380  0.2007480092378771
  0.0113405846255361  0.0972202916529170  0.2849098752886832
  0.0099472803255267  0.1881103345430546  0.3876298128230502
  0.0042727575057739  0.2989488925547121  0.5109655436049678
  0.1113393990982061  0.4052202824150442  0.7138708276696377
  0.0944866402727342  0.5024422544814726  0.8038438121632012
  0.0908803611569340  0.6048109512812019  0.8994919912020265
  0.1135526167381471  0.7059562318266828  0.0092505492136823
  0.1049168190916063  0.8057040237545365  0.0963487865390960
  0.1009800387111000  0.8968237703728121  0.2012133658858488
  0.1148423371824450  0.9944159960409138  0.3072324271417557
  0.1014347304519987  0.0926846712856033  0.3960398790278248
  0.0996098682503046  0.2118714395689025  0.4982119406136576
  0.0929992702078550  0.3149875785769254  0.6164767737820327
  0.1914215616408228  0.4024145316177297  0.7992775524029483
  0.1908197061475860  0.5029562652589874  0.9018721689211446
  0.2046572677884058  0.5886541959749252  0.0044416302650419
  0.2057077870889685  0.6952270146266386  0.1015514307709253
  0.2001836414824609  0.7975588786978989  0.2169783059496311
  0.2242188712196196  0.9009426684262607  0.3076147146156387
  0.2219336029913137  0.0137784365995799  0.4136088428461449