Li 
 1.0000000000000000
    22.7325000000000017   -0.0000000000000006    0.0000000000000000
    -0.0000000000000006   22.7325000000000017    0.0000000000000000
     0.0000000000000006    0.0000000000000006   22.7325000000000017
 Li 
 500
Cartesian
  0.0737437600000000 -0.0582727800000000 -0.2995057000000000
 -0.1457682300000000  2.5104076200000001  2.2585862400000001
  0.2657295400000000  4.6441257900000004  4.6587060899999999
 -0.3838453200000000  7.0629536499999999  6.9786625899999999
  0.0643261700000000  9.1341005099999997  9.4633596200000003
  0.1961825700000000 11.6137964500000006 10.9385706400000000
  0.1800452700000000 13.2522893499999999 14.0705387099999992
 -0.2683985800000000 15.9360462100000007 15.9231029100000008
 -0.2668110800000000 18.0268739700000005 18.3785392600000002
  0.0447535600000000 20.1075544199999996 20.2984766500000013
  2.2185016399999999 -0.4443221900000000  2.3495996699999999
  2.1247552100000000  2.3124771800000001  4.4956434400000003
  2.4128983700000002  4.5413688299999997  6.7048818099999998
  2.3167374100000000  6.8235760399999998  9.2702228899999994
  1.9876012700000001  9.0629526200000008 11.3375519600000008
  2.1432751400000001 11.3325959300000001 13.8957102199999998
  2.1335379400000001 13.8731515600000002 16.1708730799999998
  2.2860985899999999 15.9006051700000004 18.1992450800000007
  2.2196408200000000 18.1501190399999999 20.2777126699999997
  2.2137668399999999 20.2716648500000005 22.4263964400000013
  4.7023096799999999 -0.1571831500000000  4.7813685399999999
  4.3379353399999996  2.5420430500000002  6.7570337800000004
  4.7761070600000002  4.3664593900000002  9.1571919699999995
  4.2759634699999998  6.6342610600000000 11.3322936999999992
  4.3968984799999999  8.8991930900000007 13.6911541600000000
  4.6447883699999997 11.4740957899999998 15.8913192700000003
  4.4724316899999996 13.6603256399999999 18.1295713800000016
  4.5841896499999999 15.7385194599999991 20.6682420799999989
  4.8410709499999998 18.2674878400000011  0.0577930900000000
  4.7442472000000002 20.1617514299999989  2.3153638800000000
  7.0280428600000002  0.2840803000000000  6.9005093100000003
  6.9565716399999999  2.5634132799999998  8.9698319000000009
  6.5573332100000004  4.7666275999999996 11.4527969200000008
  6.6564104600000000  6.9824482100000003 13.5066563700000000
  6.4760277600000000  9.0792671899999995 15.8725222200000005
  6.7720477099999998 10.9755172200000004 18.3369569000000006
  6.6997464899999999 13.4332704100000004 20.4144934599999992
  7.0066135300000001 15.8107547799999999  0.1466458600000000
  7.1917921500000004 18.0336190800000011  2.4519011000000002
  7.0597478400000000 20.4260783400000001  4.6752784399999996
  9.1267783100000006  0.0280500700000000  9.4037220799999997
  8.9970041300000005  2.8245478300000002 11.5970115200000006
  8.8916210000000007  4.9866454600000001 13.9349978700000001
  9.1099950599999993  6.8707070300000002 15.6724134900000003
  8.8564720399999999  9.2091870799999995 18.0459651500000007
  8.9962312900000008 11.0929995500000000 20.4160256500000017
  9.3848576999999995 13.7324189099999998 -0.1757433900000000
  9.0617411499999996 15.8500810500000000  2.2751382300000000
  8.8304197700000007 17.7918091400000016  4.9943549000000003
  8.7451012400000003 20.6572838999999995  6.9058162000000003
 11.1714972800000005  0.5306203400000000 11.2634695199999992
 11.1277890999999993  3.0319650500000002 14.0728068200000003
 11.2447755800000007  4.6247966500000004 15.9753476499999998
 11.5794313700000000  6.6111965699999997 18.1577759199999988
 11.5049997600000005  9.0889870399999992 20.4190782400000010
 11.5996860000000002 11.1020104100000001 -0.0727457800000000
 11.6142019399999992 13.3786793900000003  2.3151265300000001
 11.6124790999999998 16.0948750400000016  4.8554132200000000
 11.3124741300000000 18.3270833599999996  7.3393124399999996
 11.3356279200000003 20.5865676899999990  9.2094497999999998
 13.3833789400000001  0.2638229700000000 13.3790094400000008
 13.9817603300000002  2.1865466400000000 16.0616898399999997
 13.4358523299999995  4.2799980000000000 18.4724496500000015
 13.6247194700000005  6.6108214600000004 20.6449864900000009
 13.4384799499999996  9.1340439700000005  0.0599847700000000
 13.7989622999999995 11.0340293400000000  2.6517774200000002
 13.6675105899999991 13.4214728000000001  4.6141110000000003
 13.5040809100000008 15.7062081199999994  6.9054640100000002
 13.7023865800000006 17.8565989300000005  9.1070041800000006
 13.3899977600000000 20.7550967100000001 11.4876278299999992
 15.7461608900000005  0.1227852500000000 15.7798172099999992
 16.0195349299999990  2.3743628200000000 18.1434645299999993
 15.5450744800000002  4.5859938800000002 20.3809544600000017
 15.7121620499999999  6.7012531099999997  0.2926661000000000
 15.9367397099999994  8.8601533200000002  2.3860093199999999
 16.1408468700000007 11.5307742900000001  4.5470347599999998
 16.1020555899999991 13.6763941899999999  6.9753336299999997
 15.7781074599999993 15.6904309200000007  8.6352321799999991
 16.0382457500000015 18.2242160899999988 11.2617367200000000
 15.4510697500000003 20.5919079099999998 13.7129934500000008
 18.1740682699999994 -0.4261198200000000 17.8738272100000017
 18.0459160899999986  2.2353564200000000 20.6468137899999995
 18.2504352899999986  4.6588595699999997 -0.3298192600000000
 18.2500237900000002  6.5382538200000004  2.3250763200000000
 18.2860595600000018  8.8721564399999995  4.2174675600000002
 18.4332014599999994 11.4828599499999999  6.5566520099999996
 18.3959108299999983 13.6004867500000000  8.7428801000000007
 18.3574437800000005 16.1706956300000009 11.1696322499999994
 18.0884216699999989 18.1425289800000016 13.3307407799999993
 18.1106755899999996 20.2766758699999983 15.5078417700000006
 20.2523045800000006 -0.3835666100000000 20.4300841700000007
 20.5261805099999997  2.2602134500000002 22.5808232900000014
 20.6590907100000010  4.7014899500000000  2.1684650599999999
 20.5984010499999997  6.7692450700000002  4.5484472800000004
 20.2883647099999997  8.6484193299999994  6.8658121000000003
 20.8539942300000014 11.6152545699999994  9.0723845500000007
 20.4940448999999987 13.9291011800000000 11.6956144500000008
 20.4693588200000001 15.7340217500000001 13.4421701299999992
 20.2570797599999999 18.0754276300000001 15.8945341500000001
 20.3897441000000015 20.1604904199999986 18.1201618099999990
  2.2060285099999999  2.2382573899999998 -0.0616306400000000
  2.0473565100000002  4.9152284599999998  2.0625437000000000
  2.3087493900000000  7.1377419700000004  4.7053524600000003
  2.2898379900000001  9.0450769199999996  6.9635569300000002
  2.6168392599999999 11.4172926700000001  9.0463743399999998
  1.9702436600000000 13.3738015000000008 11.2764512600000000
  2.5742077100000000 15.9508526400000008 13.5254081700000004
  2.2345190399999999 17.7545014200000004 15.8708537900000000
  2.4365696500000000 20.5684242200000007 18.1470728500000007
  2.1663027300000000 22.9238450900000004 20.0014631799999982
  4.5159510799999998  2.4664786599999999  2.4630337700000000
  4.2821097200000002  4.4646509999999999  4.5075438099999996
  4.5568391500000001  6.8398913500000003  6.8259121199999999
  4.4410692200000002  9.1962737600000004  9.0167191399999993
  4.5323655399999998 11.0178537399999996 11.2913164100000003
  4.6507326500000001 13.0495348300000007 13.7158614399999994
  4.3765950100000000 15.9980660300000004 15.9399911000000003
  4.4957001500000002 18.2523689900000008 18.2498041099999995
  4.6491455000000004 20.5030727800000001 20.4069426000000007
  4.0828236400000000 22.5719870900000004 22.8455522900000005
  6.9105034600000002  2.3339531299999998  4.4615991199999998
  6.8525724300000004  4.6320622299999998  6.4424468600000004
  6.8854840299999998  6.8629516500000003  8.7975335500000007
  6.7202647799999999  8.5188058800000004 11.3637864999999998
  7.0436774000000000 10.6617669799999994 13.2621890600000008
  7.1872580499999996 13.5303199900000006 16.3999350100000001
  6.9285930000000002 15.8934268200000002 18.0174045800000009
  6.6542740100000000 17.9822792400000004 20.4043135800000002
  7.1141931500000002 20.3915659699999985 -0.1680729900000000
  6.5653832699999999 22.6001812099999988  2.2089948599999998
  9.2100592500000005  2.5971094099999998  6.9110360899999996
  9.3549119100000002  4.7403674300000000  9.0773676999999999
  9.5138252800000007  6.6969661900000004 11.2195771999999998
  9.1822099000000001  9.1959672999999995 13.4293988599999992
  9.0517723799999992 10.6787322099999997 16.1830589700000012
  9.1284248300000002 13.4708298200000005 18.2084190799999988
  8.8405532000000004 15.7886987800000007 20.3560766499999986
  9.5251698699999992 18.3774654999999996  0.2169134100000000
  9.3117942300000003 20.6143228000000001  2.2120509799999999
  9.1042797899999997 23.1563171399999987  4.4712978100000003
 11.4489853000000004  2.8161055500000001  9.1369340099999992
 11.5765918800000005  4.6233459000000003 11.2767925699999996
 11.3584924500000000  6.8440909999999997 13.6225648100000001
 11.4787556899999998  8.6976218299999992 16.0051223200000017
 11.3188349899999992 10.9183311700000001 18.3500891800000012
 11.6322406399999991 13.5854207599999999 20.4591152700000016
 11.2877610500000003 15.9699904000000004 -0.0822549500000000
 11.3171622500000009 17.7873835100000015  2.1666959700000001
 11.2014201900000003 20.6443701399999995  4.6642008700000002
 11.0461093300000002 22.8036704000000015  7.0456260100000003
 13.7621828700000002  2.7565404099999999 11.6765379700000000
 13.8974536999999998  4.7786384699999997 13.9307464599999999
 13.7627221800000008  6.9218080899999999 15.8255161799999993
 13.5334416999999991  9.3433746299999996 18.6117466000000000
 13.6424822399999996 11.5739560299999997 20.5449052600000002
 13.7202772999999993 13.5481281899999999  0.3128118500000000
 13.2149459399999998 16.1624629700000000  2.4936848000000000
 13.5155119399999997 18.3291385600000005  4.8206603100000001
 13.5582094200000007 20.7012915699999986  7.2358609600000001
 13.6539845599999996 22.9591655400000008  9.5250944499999992
 15.8341019799999998  2.2257230200000002 13.5844430599999999
 15.9677655200000004  4.7330485800000002 15.4284272500000004
 16.2009251499999998  6.5905022600000001 18.0687328799999989
 15.6840775299999997  8.8038681000000008 20.6037336899999985
 15.9279358099999993 11.2773912599999999  0.2735728400000000
 15.8253038499999992 13.5483059699999995  2.1661244599999998
 15.6025826199999997 16.1120374200000001  4.7212001900000002
 15.8193707499999991 18.5499994900000011  6.8801169499999997
 15.8935665099999994 20.6576628000000007  9.4576698300000004
 15.9108948300000002 22.8471737499999996 11.5069312600000000
 18.3196420099999990  2.1355704300000000 16.0021218900000015
 18.1350068700000016  4.5859149099999996 18.2727010099999987
 18.1567973199999990  6.9674509000000002 20.1964745699999995
 18.1118974399999999  9.1294737599999998  0.3887884400000000
 18.5009807899999998 11.4254397099999991  2.6288424300000002
 18.1301968900000006 14.1749878200000001  4.7061270500000001
 18.5451810700000017 15.9742606499999997  6.7810461200000001
 18.2342901099999999 18.5863947799999991  9.2536643200000004
 18.0397449499999993 20.4977432800000017 11.3672924900000005
 18.1624697899999994 22.7557671799999994 13.6067173799999992
 20.4499591599999988  2.1496906500000001 18.5028136600000011
 20.4106373300000001  4.7243354699999998 20.3027205899999998
 20.5007548899999996  7.1015890400000004 -0.0380112100000000
 20.7684675100000007  9.2553423099999996  2.3081942700000000
 20.8565660100000017 11.6527273499999993  4.4217094499999998
 20.5896359900000014 13.9418691199999998  6.6780838899999999
 20.4258263800000002 16.1446949300000000  9.1230744700000006
 20.5093336499999985 18.0826907400000003 11.5724573999999993
 20.4021846199999999 20.0770545499999997 13.5683254299999998
 20.2326692900000005 23.0196708200000018 15.6422991099999997
 22.4657333500000007  2.4102774000000000 20.4730931699999985
 22.6219876599999985  4.6073310599999999 22.6089315100000015
 22.7660044399999997  7.1594516800000001  2.2479316499999999
 23.0554145800000008  9.2910158700000007  4.4738791800000000
 22.7580163900000016 11.3483196399999997  7.3332381299999998
 22.4947654999999997 13.7999407499999993  9.0137471300000005
 22.6328215800000017 15.9285013200000005 11.6485945799999993
 22.6973336699999990 18.1587775600000008 13.7545239099999996
 22.5365486200000014 20.1810630199999999 15.8696530300000003
 22.3167974700000009 22.7633653600000017 18.3282427299999995
  4.6887553999999998  4.9509449500000002 -0.1685754000000000
  4.2781385199999997  7.0479833599999999  2.3319649600000001
  4.4117472199999996  9.2264992699999997  4.6494366800000000
  4.3861038600000004 11.3380206300000008  6.6056957799999996
  4.7420018500000003 13.6988530900000001  9.3209813700000002
  4.9463645900000000 15.6855832399999997 11.3497296300000006
  4.6289755000000001 18.2352169000000011 13.7577499900000007
  4.4529590099999998 20.3218957499999995 15.6598868099999997
  4.6442231700000001  0.3035353700000000 18.0735176399999986
  4.2800154299999997  2.1986250599999999 20.3526160300000001
  6.6176145599999998  4.5494339400000001  2.2267782100000000
  6.4382599699999998  7.1534550599999998  4.5407839599999997
  6.7609849899999999  8.9715348400000003  7.1682380600000002
  6.8090946099999998 11.2548562400000005  8.9504968900000001
  6.8734492400000002 13.3915396799999993 11.2362350299999996
  6.7259776699999998 15.7465140500000000 13.7877924099999998
  6.7631191199999998 18.5103228100000017 16.0230841400000017
  6.8721515599999998 20.4460140899999985 18.2828903800000013
  6.4409063199999999  0.0187857200000000 20.6636479999999985
  6.6253545500000000  2.1752713099999998 22.7237454600000000
  8.7973220699999999  4.7953204100000004  4.5300580200000002
  9.1933454999999995  6.7938476600000000  6.5827052100000003
  8.9956382500000007  9.2019406600000000  8.8000906200000006
  9.3968529499999995 11.2092718199999997 11.0780277500000004
  8.9616527200000000 13.2718038099999998 13.5390027100000001
  9.4362165099999995 15.8088375699999997 15.6825106800000000
  9.3328303199999993 18.1090960800000005 18.0823456699999987
  9.0794317299999996 20.2068832100000009 20.3470711800000004
  9.0843852399999996 -0.2170713300000000 -0.2837122800000000
  8.7841224899999997  2.1767088100000000  2.1756152900000001
 11.4957456400000009  4.8752921699999998  6.5504612199999999
 11.6193629400000003  6.9585157000000004  8.7040768300000000
 11.6845103800000008  9.1661195000000006 10.9444480899999999
 11.4798377699999996 11.3979534999999998 13.8995263799999993
 11.1007103199999992 12.9903940900000006 16.0588788300000012
 11.3303584399999995 15.7144588499999998 18.2628475700000017
 11.0584973000000009 18.1173863699999984 20.4787472900000012
 11.0935592900000000 20.6764909199999991  0.1378069100000000
 11.0462645800000008  0.1816983500000000  1.7901788800000000
 11.1193773900000004  2.5992272299999999  4.5379959000000003
 13.7666091099999992  4.6405449499999998  9.0051543800000005
 13.5467873799999996  6.4876803799999996 11.3267449599999992
 13.5485001300000008  9.2796611299999991 13.5930804300000005
 13.7584823800000002 11.1417419300000002 16.1640849799999984
 13.4972364200000001 13.6588919299999993 17.9531576299999998
 13.4888453399999992 16.0212578199999989 20.4614961899999983
 13.6563836199999997 18.6897721300000015  0.3562855800000000
 13.2352778299999994 20.4909501600000006  2.1275639399999999
 13.2977561400000006  0.2989274300000000  4.7680341100000003
 13.5155636200000000  2.4646365100000001  6.7227416599999996
 16.1236971800000006  4.4954704400000001 11.4391256400000003
 16.1755269699999999  6.9489184000000002 13.4978616200000001
 16.0902824100000004  8.8874007200000005 15.7829165600000003
 15.6958434699999998 11.4673363899999998 18.0265384299999987
 15.5773540799999992 13.9869763299999992 20.4468150699999995
 15.6032233999999992 16.2062875599999998  0.3948034400000000
 15.1519152300000002 18.4426025799999991  2.7251203600000000
 15.7620997700000007 20.4884366299999989  4.4905908400000003
 15.8748812299999997  0.1981550400000000  6.7579378600000002
 15.9202642700000006  2.4422160399999999  8.9354320400000002
 18.2201732300000003  4.2917003600000001 13.6379368400000001
 18.2657631699999996  6.8252291600000001 15.6247246099999995
 18.0443026999999994  9.4049923399999997 17.8891919100000010
 18.0806178799999984 11.3789075400000002 20.5981533900000002
 18.0771040300000010 13.5872181300000001  0.1507844800000000
 17.4426362799999985 15.8145038400000004  2.2685734800000001
 18.2394637599999996 18.2068570299999983  4.7022169399999996
 17.9574395699999982 20.6507930299999991  6.9597523499999996
 17.8819241700000013 -0.0996904400000000  9.1021869300000002
 17.9165121099999993  2.1594937700000001 11.1070270299999994
 20.3435881700000003  4.2628454199999997 15.9261718299999995
 20.4359895599999994  7.0405474300000002 18.3798082899999997
 20.4795892899999998  8.9757346099999999 20.3957686900000006
 20.5497070899999983 11.4514683599999998 -0.1383557900000000
 20.6334265399999985 13.6197426200000002  2.2254339900000000
 20.6589286700000017 16.1115373700000006  4.1612513299999998
 20.5080449999999992 18.3987978900000009  6.8207011099999999
 20.1333097300000006 20.6014413900000015  9.3129054300000007
 20.6861355300000014 -0.1836231000000000 11.3678943300000004
 20.5234792500000012  2.1015534300000001 13.5271746600000000
 -0.0855136600000000  4.6334742599999998 18.0725890400000004
 -0.1634835000000000  6.8925829099999998 20.5054723500000016
 -0.0039773700000000  9.0180893900000001 -0.0376799600000000
 -0.3569914100000000 11.4627215899999992  2.1534916900000001
  0.2748768200000000 13.3737634399999994  4.6153667100000000
  0.1652859300000000 16.4608532399999987  6.5878502299999999
  0.1703033700000000 18.3936007900000007  9.1496820700000008
 -0.0310318600000000 20.4370055999999991 11.3566212600000007
  0.4582564500000000 -0.0343297100000000 13.6433374999999995
 -0.3430686900000000  1.8983833299999999 16.0418874699999989
  2.2783132500000001  4.5618161400000004 20.0284002900000004
  2.1362405199999999  6.9000485200000004 22.4235552100000000
  2.2013575900000002  9.3646738999999997  2.3806772100000000
  2.0882435500000001 11.3835057299999995  4.7886733100000001
  2.3083952700000001 13.8041019899999995  7.0839037100000004
  2.2610303100000002 16.1001310699999998  9.2955230699999998
  2.9068765600000002 18.2879609499999987 11.5836466199999997
  2.6022338600000001 20.3389969899999983 13.8668458999999995
  2.0747223699999999 -0.2235821400000000 15.9912761299999993
  1.7147066799999999  2.2756552299999999 17.8745380300000001
  6.8714314500000002  6.6942174999999997 -0.2198422400000000
  6.7083674699999998  9.3120658699999996  2.5545175599999999
  6.9048845400000003 11.6152363600000008  4.5363491099999997
  6.6701042299999997 13.4785941000000005  6.7006531899999997
  7.0416701000000002 15.6410917200000004  9.0894348100000002
  7.1280688200000002 17.9534466299999984 11.3064568399999992
  7.2632348999999996 20.2850860799999992 13.6939725299999999
  6.8326407800000002  0.0126325000000000 15.8623149300000001
  7.0153575000000004  2.3747320699999999 18.1235520900000004
  6.6893285400000000  4.6005093500000003 20.3366287600000000
  9.0139963900000009  6.9488513899999997  2.2181067200000002
  8.9388231299999994  9.0168807300000005  4.4396269700000000
  9.1783954699999999 11.1205986600000006  6.6873143199999996
  9.1142363700000004 13.6243819899999998  9.2105728500000001
  8.9116973900000005 15.6181301900000005 11.8122581600000007
  9.5112253399999993 18.2770033900000008 13.7497937700000001
  9.1755422299999996 20.6209422499999988 15.5107617599999994
  9.0209682900000008 -0.4114853400000000 18.3102711800000009
  9.0193856799999992  1.8549018200000000 20.2869096700000000
  8.7993564299999996  4.4453862700000002 22.4446900999999990
 11.2317937800000003  6.4738927400000001  4.6161921899999996
 11.2912095200000007  8.9012343800000000  6.5979533699999999
 11.6798774299999994 11.4266297500000000  9.0300689900000002
 11.5750525000000000 13.6491427999999999 11.8224651299999994
 11.7757496199999991 15.7057237300000008 13.7623350099999993
 11.6730889100000006 18.3032826700000015 16.0099160299999994
 11.0777365900000007 20.7469315600000002 18.2538947900000004
 11.4829791700000001 -0.0682594500000000 20.4216167999999989
 11.1537774899999995  2.4714819600000002 -0.4590524400000000
 10.9795721799999999  4.1788143399999997  2.2692544799999999
 13.7517991700000000  6.8824598400000001  6.3069325000000003
 13.9934904600000003  9.0938477899999999  8.9163735299999995
 13.9280709700000003 11.3879541700000004 11.2902868600000001
 13.7518594000000007 13.5654077199999996 14.0403213999999998
 13.3590434299999998 15.9209836500000002 15.6516998800000007
 13.5139500300000002 18.0712600700000010 18.2549057999999995
 13.3710871999999998 20.5815079300000008 20.1266047599999993
 13.4475387400000006 -0.0238631600000000 -0.4077726200000000
 13.6949405500000001  2.4245691699999998  2.0044125600000000
 13.7627753100000003  4.3218595500000001  4.2702705800000000
 15.7067404899999996  6.7990644900000001  8.9119528199999998
 16.3591415900000001  9.1166437699999996 11.5999977300000001
 16.1405779500000008 11.6586868700000004 13.8728392700000001
 16.0567506699999996 13.5277103800000003 16.2582424100000011
 15.9071561799999994 15.8056288600000006 17.9674447999999991
 15.9395998100000007 18.1302858399999991 20.2223585499999992
 15.6238033900000008 20.2804573700000006  0.4700931200000000
 15.8914488200000008  0.1787832300000000  2.0528806400000001
 16.2093541600000002  2.3456526200000001  4.2715879399999999
 16.2277684399999984  4.7669833400000003  6.3227856800000000
 18.3687294700000017  6.9683068800000001 11.5700032400000001
 18.6469015400000018  9.3672502200000007 13.6755905900000005
 17.9254583600000004 11.5139429799999995 15.8450589700000002
 18.1442112299999998 13.7011756299999998 18.2655529799999989
 17.8047481300000001 15.9765220400000008 20.5795326299999992
 18.1129121099999999 18.4866145000000017  0.4847571700000000
 18.3491524400000010 20.4051026600000007  2.5682003199999999
 18.0514924599999986  0.1370318000000000  4.7359636700000003
 18.3568612699999996  2.2777449100000000  6.9828173800000002
 18.3510610300000003  4.6949138399999999  9.3141529100000007
 20.7499903500000009  6.7714852800000003 13.5890064699999993
 20.5677124800000009  9.3919696699999999 15.7747620499999996
 20.1755365100000006 11.5361814500000008 18.2151578900000004
 20.3481547899999988 13.7456803300000008 20.5377440500000006
 20.1574626899999991 15.6959497300000006  0.0155987300000000
 20.6742719800000003 17.9134013000000003  2.0741149800000001
 20.3991134299999999 20.2234921800000009  4.8746674299999997
 20.5886934799999999  0.0410774200000000  7.0803630399999999
 20.7382944800000004  2.0443909400000000  9.1377087400000008
 20.9244635999999993  4.4978644100000000 11.3228942799999999
 -0.2011189900000000  7.1032180800000004 15.8561100100000001
 -0.1863026000000000  9.2358193800000006 18.2254624700000001
 -0.1888843600000000 11.2644552800000000 20.1539402299999999
 -0.0770073200000000 13.7713792200000000 -0.3259440700000000
  0.2300901600000000 15.7444438499999997  2.3002252799999998
  0.1248413700000000 18.4372599999999984  4.3105211099999998
  0.1173921100000000 20.3788992299999983  7.0660742399999998
  0.2871875600000000 -0.2474104800000000  9.3222565999999993
  0.0039657600000000  2.0589106400000001 11.3107705099999993
  0.2573614900000000  4.6525391899999997 13.7774748500000008
  1.9724551699999999  6.8189871799999997 18.2047157099999986
  1.9912059499999999  9.0313757700000004 20.1624113600000001
  2.0519791900000000 11.2770126699999995 -0.2832552900000000
  2.2961677699999998 13.9088979800000008  2.2532224699999999
  2.3350823799999998 15.9829024200000003  4.4404605100000003
  2.7349525899999998 18.2786355799999995  6.7895735899999998
  2.6734585399999999 20.2999790199999985  9.3441958100000004
  2.3695388700000000  0.0582654000000000 11.6606567900000009
  2.0453228399999999  2.4018413900000000 13.8763031399999992
  1.9522622800000000  4.3848497499999999 16.3033863600000011
  4.7582852200000003  6.8770888899999996 19.9125101200000003
  4.1217214000000002  9.0398874599999992 22.5486964400000005
  4.1763180200000001 11.5775298499999995  2.3150878200000000
  4.5116706999999998 13.6753387699999998  4.6729669100000004
  4.8286922299999997 15.6842150000000000  6.9397049800000001
  5.0550530399999998 17.9187879300000006  8.8096639099999994
  5.0897540799999996 20.3135448200000006 11.7743542600000008
  4.5936040699999996  0.0606654600000000 14.0808246599999993
  4.5385885699999999  2.3148618800000000 16.0138467400000017
  4.6243419499999998  4.2687818699999998 18.0567941999999988
  9.2221513000000002  9.2383255799999997 -0.1656821300000000
  9.1108954799999999 11.2491869100000006  1.7070599900000001
  9.3492312399999999 13.6940584300000001  4.5229438699999998
  9.5109665600000000 15.8455861099999993  7.3480343000000001
  8.8715703500000007 17.8570516300000008  9.4012964199999995
  9.1116647000000004 20.4362756999999995 11.5073334099999993
  9.2131563799999991  0.5281989300000000 13.4375601000000007
  9.2025838300000000  2.1672349099999999 16.1917293300000011
  8.9151840900000003  4.9096167499999996 18.2369968000000000
  8.9154463499999999  7.1952701100000001 20.1508247500000017
 11.0892545100000000  8.9245073999999995  2.4749304799999998
 11.1195042100000006 11.2571362300000004  4.5438191999999997
 11.7388718999999995 13.3075830199999992  6.7264470400000000
 11.3961107599999991 15.6950097300000007  9.2651023600000002
 11.3774678799999993 18.2270100299999989 11.1671326000000004
 11.6869226099999999 20.6690138300000008 13.4169206699999997
 11.1686332099999994  0.1013822600000000 16.0571064499999991
 11.3000983900000005  2.4333036699999999 18.2844556599999990
 10.8832538000000003  4.7221507500000000 20.0597553600000005
 11.1326869800000008  6.4499907299999997 22.4108711700000001
 13.8447776200000003  9.1712464499999999  4.3302679499999996
 13.9084838600000005 11.1436709100000009  6.4086542599999996
 13.5489822800000006 13.3918820800000002  8.9432278899999993
 13.8096677799999998 15.6254480600000001 11.2872162599999992
 13.5580402200000005 18.0825488999999990 13.3130525100000003
 13.3672179199999999 20.4468287599999989 15.6842114800000001
 13.6239013799999995  0.2046035900000000 18.1427002699999989
 13.5128499099999999  2.0707220400000002 20.6078632900000009
 13.4116003199999998  4.2379655400000003 -0.2524203300000000
 13.2377347200000006  6.5941406999999996  1.7925834599999999
 16.1729372200000014  9.0400248399999992  6.6092602899999999
 15.8493520399999994 11.3253770100000004  8.9578678299999996
 16.2692881000000007 13.5928242000000008 11.1832413400000004
 16.0654245799999984 15.7260639399999995 13.4690507799999999
 16.1949219900000010 18.1462983700000002 15.6298987900000004
 15.9222459900000004 20.2158918300000003 18.0853442700000002
 15.8700050600000004 -0.2370993900000000 20.2481678299999999
 15.6815945200000009  2.1422422399999999  0.1178552800000000
 15.7682887600000008  4.3325916500000003  2.2247843700000001
 15.9846946899999995  6.6871837400000000  4.1027206100000004
 18.3145781899999989  9.1600706600000006  8.9349690499999994
 18.6561429399999987 11.4830488699999993 10.9920376700000002
 18.1604192200000014 13.4906637899999993 13.5907384100000002
 18.0758861400000015 15.7730109699999996 15.7447749100000003
 18.4022601600000009 17.9377657799999994 18.5138223599999989
 18.4333028299999988 20.2102171400000010 20.4655236800000004
 17.8742749500000002 -0.2757654600000000  0.2483357400000000
 18.1279483399999997  2.4023230500000001  2.1155873800000000
 18.3192339299999993  4.1276495799999999  4.6658014000000003
 18.0169853499999988  6.7638328999999997  6.6939760699999997
 20.3885033699999987  8.8727625200000002 11.0150859099999998
 20.7261020400000007 11.3356422699999992 13.4400595799999998
 20.2165545199999990 13.5742119999999993 15.6904017899999992
 20.2172693800000012 15.6643396399999997 18.1908113900000004
 20.3029209900000005 18.1402536999999988 20.7115919200000000
 20.7618101300000006 20.4350674499999982 -0.2261063500000000
 20.6079972600000012 -0.1185292700000000  2.1346370499999998
 20.7154282000000016  2.4433643699999998  4.5888061799999997
 20.4146300799999985  4.4130232100000004  6.6888285700000001
 20.5320575299999994  6.7298032799999996  9.1754424399999994
  0.0078952500000000  9.4748404700000002 13.7385206100000001
  0.1254960700000000 11.7816463500000008 16.0521569500000005
  0.0401305200000000 13.4512707700000007 18.4474464699999992
 -0.0792749600000000 16.0242930799999996 20.2224360400000016
  0.2024094100000000 17.8059204599999994  0.0812521800000000
 -0.5674966600000000 20.2368852600000011  2.1686368100000002
 -0.0244463300000000 -0.0583910000000000  4.5635041200000002
  0.2577998400000000  2.2100602800000000  6.4767137400000001
  0.2261265500000000  4.2762181799999999  8.8117947200000000
  0.0971304600000000  6.7958556999999997 11.6155242199999993
  2.5310228900000000  9.2116700700000003 16.2280685899999995
  2.1479175499999998 11.4217685499999995 18.2733794600000010
  2.0659378099999999 13.7488649499999998 20.4477016899999988
  2.5813348600000001 16.0481500399999994  0.2102881100000000
  2.3850215900000000 18.3156667199999994  2.1902487900000001
  2.2955287300000000 20.3870463599999994  4.5740828400000000
  2.6106534300000002 -0.1269383700000000  6.9841611500000003
  2.3058650100000002  2.1069542900000000  9.0029765499999996
  2.2643813300000000  4.8163675000000001 11.3256029399999996
  2.1141059100000001  7.1604551299999999 14.0140582600000005
  4.3514906499999997  9.1478883399999997 18.1695769600000006
  4.3378089700000002 11.4334533000000000 20.5018090800000010
  4.6523713400000002 13.3815815100000002  0.1009693600000000
  4.6762522700000000 15.8042481099999996  2.3085179000000000
  4.5506746299999996 18.1305072100000011  4.9324593400000003
  5.0970554899999998 20.4806792100000017  6.9928515000000004
  5.0451056300000001  0.3132183100000000  9.4023630199999992