Li                                      
   1.00000000000000     
    21.6499999999999986    0.0000000000000006    0.0000000000000000
     0.0000000000000006   21.6499999999999986    0.0000000000000000
    -0.0000000000000006   -0.0000000000000006   21.6499999999999986
   Li
   500
Direct
  0.9996937588914534  0.0015969048498832  0.0007584050808305
  0.0077690147805995  0.1053388669745985  0.1071056789838352
  0.9975345916859126  0.1997673870669772  0.1897810979214754
  0.0047005958429551  0.2974180429561173  0.2990054946882239
  0.0005369528868329  0.4042887547344094  0.3720463903002340
  0.9947621127020767  0.4977157168591191  0.4645267898383381
  0.9777938979214795  0.6083857607390328  0.5939966665127017
  0.9908559173210136  0.6937244494226320  0.7044714618937675
  0.0221291200923801  0.7985388600461860  0.7955759173210168
  0.9869043501154735  0.9286855630484965  0.8957732438799084
  0.1242830674364868  0.0300027108545038  0.1081815907621220
  0.1272921736720534  0.1131726595842935  0.1906240327944602
  0.0896969399538108  0.2111192923787542  0.3086195829099339
  0.1078083297921495  0.3010953108545067  0.3967782637413393
  0.1039353113163983  0.4171348295611992  0.4871507561200943
  0.0773576337182433  0.4902055399538128  0.6065018120092347
  0.0639208364896078  0.5693311764434199  0.7148669436489641
  0.0779312946882200  0.6888296655889121  0.8121491926097022
  0.1014367247113199  0.8151011736720548  0.8976476309468850
  0.1122316614318706  0.9088870591223994  0.0175227916859129
  0.2201124674364863  0.0136712249422644  0.1881803939953812
  0.2083049963048467  0.1012501575057740  0.3173013367205542
  0.2001790064665130  0.2011810836027692  0.4033669062355685
  0.2090991949191690  0.2926871205542696  0.5134926457274815
  0.1865997016166290  0.4081932378752882  0.5784101159353341
  0.1928022715935356  0.5018156794457269  0.6859360849884553
  0.1957624836027705  0.5993336822170932  0.7815931889145489
  0.1805956942263265  0.6982395454965342  0.8827349390300228
  0.1846223787528842  0.8022719602771389  0.9732672840646686
  0.2330221528868393  0.9134197588914574  0.0843575930715943
  0.3082266055427283  0.0064443667436507  0.2948544013856846
  0.3018137806004617  0.0995972983833724  0.4107363833718267
  0.2916068217090100  0.1895544868360304  0.4947962581986118
  0.2804002240184786  0.2711779011547364  0.5991065344110851
  0.2773836780600476  0.3816168050808315  0.6730566290993067
  0.2900540254041601  0.4929517117782893  0.7821142609699763
  0.2955138799076238  0.5815821288683622  0.9036442951501158
  0.2964045764434147  0.7043018771362597  0.0019613103926091
  0.2971596351039238  0.7882071321016184  0.0917131177829091
  0.3080115852193970  0.9044883972286399  0.2156311131639725
  0.3915606535796741  0.0006387676674393  0.3989210267898358
  0.4036828429561226  0.0864719801385689  0.5128725043879925
  0.3998171274826774  0.1974463168591214  0.5880827667436463
  0.4001513214780630  0.2940232152424969  0.6936241210161640
  0.3780831436489578  0.3899683505773694  0.7819747247113185
  0.3816282974595850  0.4895590997690533  0.8696846351039227
  0.3950181404157078  0.6263838374133925  0.9849084480369541
  0.3983670503464225  0.7125187879907600  0.0914069191685911
  0.4025346004618910  0.8090440632794440  0.1866496032332563
  0.3930975468822169  0.9003498101616643  0.3282641020785206
  0.4901098461893767  0.9934443630484964  0.4926439200923767
  0.5193067473441104  0.0975627653579707  0.6002682032332558
  0.5084700180138597  0.2093787043879942  0.7049793150115491
  0.4965303570438806  0.3040919579676640  0.7911708018475778
  0.4934609967667427  0.3967843205542749  0.8936230734411055
  0.4726436489607408  0.5093676896073873  0.0021123575057729
  0.4854538337182461  0.6112705071593538  0.0890998129330285
  0.4947793755196273  0.6773931053117792  0.1913518281755202
  0.4834211131639705  0.7860252549653595  0.3030102780600430
  0.5014203127020807  0.8899414009237887  0.3890959316397229
  0.5884808207852217  0.9957953856812907  0.5969053159353379
  0.5925724581986174  0.0977600374133942  0.6996909893764425
  0.6111897450346433  0.1990397265588939  0.8125610323325603
  0.6041376429561183  0.2823532323325608  0.8949946535796798
  0.5854575339491888  0.4032819307159343  0.9832075473441080
  0.5758851482679006  0.5135610937644373  0.0766556554272526
  0.6152322909930703  0.6013348406466505  0.1977587224018507
  0.6044876651270243  0.7114983279445752  0.2870915274826800
  0.5992400642032365  0.7979769616628190  0.3884342595842938
  0.5786463454965372  0.8901447307159387  0.4884242540415684
  0.6923225981524226  0.9940841145496506  0.6881682498845265
  0.7152053625866017  0.0966019293302551  0.7957633750577386
  0.7084208697459573  0.2077196290993086  0.9093030212471120
  0.6857191334872965  0.3084132411085463  0.9905122355658165
  0.6888653473441124  0.4012932212471156  0.0896910697459603
  0.7055872263279426  0.5072327187066961  0.1918966032332534
  0.6769150369514989  0.6141871815242510  0.3065777838337169
  0.6890213491916839  0.7033994808314077  0.4182650475750549
  0.6907257210161646  0.7818456655889179  0.4854641441108569
  0.6988005621247098  0.9030095861431846  0.5943907625866061
  0.7868502304849869  0.0015254956120074  0.7860479288683635
  0.7907430332563479  0.0867186646651277  0.9044716642032355
  0.8068224083140905  0.2062070406466532  0.0007758060046186
  0.7825395944572762  0.2826265547344136  0.0978578780600472
  0.7907357681293306  0.3926683256351069  0.1830721297921443
  0.7821112563510368  0.5025265829099297  0.2963410083140872
  0.8096822646651276  0.6062741625866082  0.4203579593533462
  0.7967840087759797  0.7082202669745925  0.4949419071593510
  0.7828820161662833  0.8105079949191705  0.5994001431870686
  0.7983734129330244  0.9057730133949207  0.7017411413394896
  0.8828657251732110  0.9954672983833746  0.9050426674364900
  0.8821264277136294  0.0794069224018443  0.0242342036951513
  0.9165478083140854  0.2048039441108571  0.0928022831408768
  0.8875628351039282  0.3051473159353364  0.1957441547344132
  0.8646485011547327  0.3999904041570446  0.2930229043879891
  0.8895857177829072  0.4896105889145517  0.3834933159353326
  0.9077631385681286  0.6048921870669730  0.5005418101616641
  0.8893216655889162  0.7089723750577335  0.6019372420323350
  0.8849108845265619  0.7889046378752909  0.7049981939953796
  0.8949788988452667  0.8933862665126995  0.7963678702078525
  0.0977742443417995  0.1136680457274792  0.0030812448036954
  0.1153961584295615  0.2057739441108524  0.1078872009237841
  0.1066384711316388  0.2896454628175533  0.2084641722863765
  0.1152443334872970  0.3975974184757476  0.2916102840646673
  0.1220418614318675  0.4898710715935337  0.3778717293302520
  0.0892887588914562  0.5970269879907590  0.4654778046189350
  0.1014460193995390  0.6829908766743671  0.6074684757505793
  0.0987882314087756  0.7829524739030020  0.6978982235565852
  0.0963190632794451  0.9180701177829107  0.8059046452655920
  0.0962702812933003  0.9992501787528880  0.9038591224018475
  0.2154996766743622  0.1054715408775948  0.0850670374133955
  0.2062662711316392  0.1896957496535805  0.2082482073902980
  0.2044381722863733  0.2841147570438807  0.2879688526558866
  0.2114941755196327  0.3777215062355666  0.3890295639722865
  0.1913332780600427  0.4908362147806002  0.4919092161662846
  0.1590887602771360  0.5803419866050774  0.5823365066974588
  0.1802768614318708  0.6796697672055458  0.6935066863741355
  0.1948878678983803  0.7940089385681262  0.8047083856812947
  0.1863458424942266  0.9171266110854503  0.9020949806004595
  0.2242716942263314  0.0037202591224030  0.9960498304849850
  0.3094587450346395  0.0923151145496561  0.2000076267898407
  0.3062047995381079  0.1907187958429546  0.3158380397228626
  0.2981602683602773  0.2919460683602750  0.4001254739030031
  0.3058098337182429  0.4113197159353348  0.5004043995381053
  0.2973209939953776  0.5007543251732116  0.5882266147806021
  0.2972271251732082  0.6059700290993106  0.6822736318706717
  0.2886263847575066  0.6844840988452674  0.7950983094688198
  0.2987534549653574  0.7850066743648938  0.8893908475750578
  0.3057301136258630  0.8863922198614347  0.9976926581986163
  0.3097949228637447  0.0204913875288710  0.1070986688221680
  0.3937675127020768  0.1137106383371815  0.3009756540415722
  0.4037239191685913  0.2000647685912256  0.4149801976905323
  0.3853172628175514  0.3026957732101607  0.5018902896073882
  0.3787905302540437  0.3906418244803689  0.5911424969976906
  0.3991085505773668  0.4930367080831388  0.7039948854503493
  0.3969491482679004  0.6052571006928389  0.7897557759815257
  0.3979396064665153  0.6848817704387997  0.9122133759815227
  0.4001627833718260  0.7974957270207881  0.9874992387990744
  0.3897286120092360  0.8926115593533481  0.0923662484988483
  0.4053983163972319  0.0031338956120095  0.1983267099307184
  0.4891973875288684  0.0962909371824452  0.4120823205542692
  0.5032105357967680  0.2230305168591258  0.4921662558891455
  0.4937728009237858  0.2846355011547317  0.6071271284064679
  0.4847168374133943  0.3812228069284060  0.7008775247113164
  0.5022179699769040  0.4889242304849901  0.8072659704387988
  0.5019623907621238  0.5779453852194010  0.9019321565819851
  0.5198163598152448  0.7111095436489592  0.9852068863741366
  0.5155021866050831  0.8283350655889166  0.1035003066974625
  0.5087976678983850  0.9075336332563495  0.2196151699769047
  0.4883408623556562  0.0183375016166281  0.3057150775981512
  0.5919439325635096  0.1138620697459558  0.5078277607390334
  0.6070379787528850  0.2117091912240170  0.6305147824480386
  0.5912406720554273  0.3055308535796755  0.7251066032332574
  0.6006749685912212  0.4084735796766736  0.7925109025404140
  0.6027026023094706  0.4965256277136234  0.9091655709006901
  0.6023368018475779  0.5986817487297955  0.9859925441108572
  0.5829038281755174  0.6987988725173224  0.0849006549653595
  0.5849957547344076  0.7944812046189398  0.1985066272517315
  0.5979124138568110  0.8914810877598143  0.2899078863741309
  0.5893848272517346  0.9973022161662826  0.3989293939953811
  0.6760122803695126  0.0943685505773644  0.6193059399538114
  0.7044745103926076  0.2079274110854499  0.7200598064665158
  0.7119720092378756  0.3145513856812912  0.8040439344110837
  0.7127710101616600  0.3997692942263313  0.8945070314087786
  0.7060216055427233  0.4926547796766769  0.0022068434180156
  0.6884791796766763  0.5976966438799067  0.0784890332563535
  0.6998073233256363  0.7083331334873009  0.1915318263279460
  0.7026132771362583  0.7872906545034652  0.2872765330254055
  0.7090745713625850  0.8890971598152433  0.3869398314087746
  0.6833950840646636  0.0066390429561167  0.4880768623556548
  0.8114040614318725  0.0911709755196313  0.6796645090069262
  0.8062253344110886  0.2037899394919194  0.8071404300230967
  0.8077603002309459  0.2821489648960736  0.8908610692840639
  0.7944849842956145  0.3721436937644356  0.9930233247113165
  0.8002017131639718  0.4918708401847596  0.0808087907621271
  0.8012812013856845  0.5985087108545031  0.1776637912240204
  0.7779182859122429  0.7023145200923793  0.2816455861431848
  0.7964357709006933  0.7963464489607404  0.3815720614318678
  0.7911148461893731  0.8887883168591202  0.4970292254041553
  0.7915848392609703  0.9830250969976930  0.5883730762124699
  0.8872026096997701  0.0940890041570412  0.8106924979214796
  0.9017282591224003  0.1901444775981531  0.9414481418013878
  0.8986023210161633  0.3007034060046223  0.0153934341801403
  0.8923511893764413  0.3808196254041576  0.1090800688221734
  0.9032347408776005  0.5000431732101589  0.1820073699769083
  0.8881669020785239  0.6046963764434210  0.2868671662817519
  0.9107057168591197  0.7113392143187056  0.3730384646651288
  0.9027675538106266  0.8011329122401847  0.4894919764434178
  0.8984327745958396  0.8902632411085420  0.5970811154734434
  0.8990955819861455  0.9896136554272488  0.6923556203233261
  0.9810608937644361  0.1004211168591240  0.9129484484988453
  0.9892854240184761  0.1993673833718219  0.0117387491916858
  0.0083294545034676  0.2969198249422647  0.1103688572748283
  0.9970118346420307  0.3909605621247110  0.2108869796766726
  0.9889202230946879  0.4843452009237907  0.2927048739030056
  0.9889307672055452  0.6049967722863769  0.3652757233256381
  0.9938506859122427  0.6978797293302534  0.4898772799076241
  0.0018574300230938  0.8117391357967634  0.6070006688221739
  0.0157695076212505  0.9030617607390283  0.7170170124711319
  0.9794979066974605  0.0009924300230963  0.7977482549653558
  0.2194606129330268  0.2084940577367220  0.0059996050808309
  0.2335724258660505  0.2807985496535821  0.1181849071593533
  0.2236959612009244  0.3975330512702087  0.2072341210161639
  0.2129715478060064  0.4939370060046215  0.2998397755196294
  0.2084836471131624  0.6263992655889155  0.3860419394919177
  0.1986903422632764  0.7035836872979218  0.5118159362586638
  0.1962350064665159  0.7904638526558898  0.6102537224018505
  0.1818240397228621  0.8874181819861420  0.7058749265588915
  0.1834274785219421  0.0183735912240195  0.7896604771362590
  0.2128901404157020  0.1169512503464176  0.9075076230946877
  0.3197689006928428  0.2098723630484969  0.1011432263279417
  0.3187061200923793  0.2961217704388019  0.2203115519630501
  0.3147406258660510  0.4036478609699756  0.3000359136258695
  0.2985166919168591  0.5133679635103903  0.3949878226327925
  0.2961852743648947  0.5827150674364887  0.4968274775981527
  0.2868305140877609  0.6703014983833739  0.5940432725173181
  0.2956819210161683  0.7835771884526537  0.6835057376443388
  0.2945248415704356  0.9261021048498819  0.7954297039260965
  0.2879269187066953  0.0065939367205559  0.8957093690531153
  0.3223384060046186  0.1134614618937633  0.9847120161662843
  0.3965604766743667  0.1968393228637382  0.2044317953810619
  0.4117358060046215  0.2790095745958396  0.2983321995381090
  0.4056084397228616  0.4063539233256321  0.4066131921478089
  0.4035486415704383  0.4862002198614306  0.4962685150115504
  0.4073960443418017  0.5816336087759808  0.6072357999999980
  0.4053245953810602  0.7080876605080846  0.6845960836027700
  0.3841409741339490  0.7791792240184776  0.7771324023094692
  0.3762036484988442  0.8999240295611983  0.8788667108545027
  0.4009748424942288  0.9854715422632765  0.9820602457274816
  0.4226512577367174  0.0984443741339476  0.1051256452655878
  0.4930263159353316  0.2070367284064645  0.3030261884526553
  0.4954035284064631  0.3088913080831404  0.4078116212471130
  0.5058442046189384  0.4091954831408771  0.5169540240184745
  0.4930848942263282  0.4750029662817568  0.6132585371824462
  0.4882288891454962  0.6089330235565811  0.7158647838337160
  0.4859667066974609  0.6894786277136262  0.8017796771362597
  0.4874103311778271  0.8175035441108562  0.8844507967667425
  0.5039823431870687  0.8946519468822203  0.9861538244803683
  0.4916181242494204  0.9963040545034616  0.0831026831408792
  0.5026131593533520  0.1001331048498812  0.2230726632794457
  0.6023813353348757  0.2063866254041571  0.3990876438799091
  0.6086462974595861  0.2978879852193970  0.5004714147805984
  0.5899219057736715  0.3914347357967642  0.6052745094688206
  0.6091614683602771  0.5009579205542707  0.6936201140877571
  0.6042815136258639  0.5889399214780582  0.7909977487297937
  0.5939943570438828  0.7122263381062339  0.8884226591224049
  0.6180559454965362  0.8302852166281767  0.9840950383371805
  0.5828900965357988  0.9083721256351041  0.0870253090069255
  0.5920401454965329  0.0068322360277122  0.2058106323325646
  0.6001046457274839  0.1007622304849889  0.3225400789838346
  0.7056495764434203  0.2012958364896065  0.5040287459584292
  0.6898346267898390  0.3148426605080843  0.6234455422632763
  0.7038956207852181  0.4275053667436524  0.6961904743648972
  0.7174024605080831  0.5154893270207879  0.8214174290993057
  0.7055180706697470  0.6008905016166253  0.8915997468822141
  0.6712214226327973  0.7047573376443452  0.9842829907621251
  0.6807569478060032  0.7968985321016149  0.0938243547344086
  0.6832497713625898  0.9162148882217096  0.1958503214780620
  0.6889431685912228  0.0082969408775995  0.3246336207852210
  0.6954104489607360  0.1174717515011565  0.4086884364896051
  0.7885371025404169  0.1949844064665101  0.6030926697459620
  0.8049357418013869  0.2985528697459614  0.6930581690531170
  0.8058727852193996  0.4111435210161645  0.8207998882217069
  0.8149139006928436  0.4975569755196290  0.9287700300230952
  0.7976413473441113  0.5951968655889175  0.9982885196304849
  0.7941432161662831  0.6891988392609676  0.0821421464203240
  0.7780117357967669  0.7909201187066941  0.1942353561200889
  0.7946651270207852  0.9142197736720590  0.2890390438799102
  0.7856847478060018  0.9972700036951494  0.3971504494226323
  0.7951338614318715  0.1047617385681292  0.5119666115473436
  0.8860048411085444  0.1969282535796779  0.7004121459584312
  0.8993024993071614  0.2866960762124720  0.8356926882217124
  0.9232126494226307  0.4027533117782909  0.9300395376443404
  0.9155168988452687  0.4812300752886856  0.0125894143187040
  0.9116332512702101  0.5832806457274842  0.0856108521939944
  0.8847846789838343  0.6882716762124730  0.1682502457274850
  0.8875548369515016  0.7943225588914515  0.2766128323325603
  0.8943453247113169  0.8980573699769039  0.3806612554272490
  0.9032730642032334  0.9949192826789854  0.4858187829099307
  0.9022872872979235  0.0876848184757506  0.6058012697459603
  0.9715275371824461  0.2075365676674394  0.8001503450346448
  0.9898750720554261  0.3034566803695142  0.9230400628175488
  0.0085528212471147  0.3915830997690506  0.0126427658198622
  0.0053521099307190  0.4752234346420323  0.1114577367205527
  0.0073187510392643  0.5943849200923808  0.1937295210161665
  0.0276448411085468  0.7071707935334857  0.2711731598152411
  0.0126883316397226  0.8081258799076210  0.3806723284064688
  0.9884569353348738  0.8959076277136262  0.4980292267898392
  0.9920202642032336  0.9896821921478036  0.6090119034642001
  0.9859843778290980  0.1078864692840682  0.7222055949191670
  0.0882584494226322  0.2005646069284097  0.8996352665127034
  0.1084642221709018  0.2971788623556577  0.0122939718244837
  0.1412015057736724  0.3748589584295630  0.1243721408775968
  0.1254879043879882  0.4860470517321005  0.1973911949191702
  0.1225304438799100  0.5962944665127026  0.2953048669745968
  0.0923849108545056  0.7046289704387974  0.3885010845265597
  0.0939154304849907  0.8094601113163975  0.5041063445727474
  0.1032878729792159  0.8936197131639716  0.5972664050808305
  0.0946592397228656  0.0105140166281785  0.6889232628175535
  0.0752914489607406  0.0971113501154761  0.8223105773672046
  0.3350482258660534  0.2997316831408767  0.9944751353348735
  0.3136840064665094  0.3979711598152420  0.1073988314087728
  0.2959670277136226  0.4847254969976902  0.2026279381062324
  0.3095186891454986  0.6046415473441087  0.3059315612009215
  0.3050600498845242  0.7145083866050825  0.4171429348729774
  0.3042471404157041  0.8100516877598167  0.5046136498845257
  0.2836789025404158  0.8961730212471153  0.6158534969976870
  0.2999758281755192  0.0079167810623559  0.6729684628175505
  0.3127231288683632  0.0987322401847592  0.7900322822170907
  0.2988032540415730  0.2064767963048482  0.8779644374133966
  0.4210660628175518  0.3198823709006930  0.1098775288683598
  0.4123931875288704  0.4010736411085460  0.2223980909930745
  0.4145335196304885  0.5003833551963055  0.3016169588914579
  0.3899571510392619  0.5952205662817533  0.4061736170900687
  0.4114619773672032  0.6952201515011538  0.5173944115473432
  0.3911318549653586  0.7982643334872961  0.6069734235565818
  0.3869722683602745  0.9040099468822191  0.7050946568129319
  0.3997339145496568  0.0141418230946897  0.8038604254041601
  0.3955694983833737  0.1162063103926130  0.8915212466512727
  0.4236730725173246  0.1970426558891489  0.0007044424942251
  0.5280745898383401  0.3073365418013836  0.2182781741339497
  0.5111649999999983  0.4241562494226301  0.2869248166281722
  0.5054855778290985  0.5007671676674335  0.4200349625866053
  0.4938277048498847  0.5963942129330277  0.5034061030023125
  0.5123129884526563  0.6850220461893741  0.6123484041570464
  0.5099610369515020  0.7962261986143204  0.6829032600461886
  0.4928290960739048  0.8941710577367203  0.7876587159353363
  0.5069486794457276  0.9933739127020758  0.8932855459584275
  0.5104237224018462  0.0786830960739024  0.9821837893764425
  0.4941084300230969  0.1949807080831434  0.1022828009237884
  0.5933979773672036  0.3126469436489643  0.3161153057736712
  0.6015952281755190  0.4110931630484984  0.4017830937644362
  0.6031240360277152  0.5183661796766756  0.5156014706697434
  0.6030033672055453  0.5897011722863752  0.6243008073902985
  0.6038252872979228  0.7048376041570421  0.7173321741339507
  0.6049267732101598  0.8012789279445727  0.7970338055427248
  0.6233155935334906  0.9054665510392610  0.8835934535796781
  0.6207343699769083  0.9810260434180123  0.9789349995381045
  0.5900510397228658  0.0757714207852160  0.0806988692840633
  0.5982983168591218  0.1918418277136240  0.2072290905311789
  0.6945739912240185  0.2786033436489603  0.4079071810623560
  0.7064165847575055  0.4109340258660481  0.5196505085450340
  0.7241547200923790  0.4977502637413380  0.5870380300230948
  0.7297730240184777  0.5906939505773678  0.7001555898383387
  0.7029810120092392  0.6857619547344100  0.8161742877598144
  0.7171756166281753  0.7779357187067006  0.9037310327944539
  0.7150359422632775  0.9086052595842986  0.9932204429561224
  0.7164388263279449  0.9996585898383401  0.1063805279445731
  0.6956962364896100  0.1236971491916847  0.2070900193995371
  0.6844980110854522  0.2266398429561178  0.2931775625866067
  0.7968608715935304  0.2908798254041542  0.5145538960739060
  0.8248244300230922  0.4224089727482649  0.5973207870669768
  0.8253967468822196  0.5087473427251723  0.7053683122401821
  0.8005260189376457  0.5868416577367199  0.8139233127020802
  0.8089333893764419  0.7113895935334895  0.9351833404157048
  0.8146756914549655  0.8073526845265562  0.0166481879907607
  0.7960905538106218  0.9027042258660529  0.1297649944572754
  0.7856885602771371  0.0135805297921507  0.2132630143187058
  0.7932317635103914  0.0951597893764458  0.2896141930715928
  0.7921311588914577  0.1941313630484984  0.4029701468822182
  0.8929554290993096  0.3274458489607355  0.5960700207852199
  0.8973736651270201  0.3770190993071623  0.7160599173210187
  0.8985157177829066  0.4942923247113171  0.8339004392609723
  0.9053933408775947  0.6078461251732108  0.9300430295611974
  0.9444964891454930  0.7090593967667402  0.0071184036951522
  0.9163506822170930  0.8135402023094684  0.1102974780600476
  0.9124372364896089  0.9067558009237899  0.2109745889145529
  0.8990001916859143  0.0081197487297899  0.3127651473441091
  0.9022461501154737  0.1027280212471098  0.4150691658198582
  0.8993837408775960  0.2066788036951479  0.4899869030023112
  0.9782866073903023  0.2895772993071617  0.6905604637413418
  0.0105996822170908  0.3919976318706730  0.8149703265588926
  0.0008801048498839  0.5024388023094701  0.9227450840646654
  0.0303447819861447  0.5839007986143159  0.0108318448036968
  0.0162995353348734  0.7226942614318688  0.0996087981524241
  0.0249891584295625  0.7898873907621251  0.1869734170900728
  0.0377692595842944  0.9043352868360301  0.2831731505773689
  0.0134060369515012  0.9974966332563540  0.3967379833718212
  0.9994286277136268  0.1051732166281738  0.5175973205542732
  0.9926273367205525  0.2053581939953801  0.6022022549653556
  0.0916083579676652  0.3046798064665097  0.7871175699769069
  0.1002309427251760  0.4136613205542758  0.9263197381062369
  0.1065809621247098  0.4936086401847604  0.0134565639722837
  0.1126059394919139  0.5974045357967697  0.1055325002309502
  0.1224335108545063  0.7094015006928416  0.2074465094688236
  0.1364705145496501  0.8129710969976927  0.2921917570438808
  0.1223250739029993  0.9115800568129302  0.4050828757505798
  0.1022646974595816  0.9938754374133936  0.5090585658198634
  0.0794451667436462  0.0878051196304881  0.6137885307159365
  0.0847805006928439  0.2101138558891478  0.6855847501154742
  0.1972274905311764  0.2841360272517335  0.8985052101616660
  0.2180747464203208  0.3811210290993046  0.0154383505773694
  0.2117533501154725  0.4855168766743674  0.0890707270207827
  0.2256553750577339  0.6075385408775986  0.1852093422632777
  0.2125901792147786  0.6891757575057724  0.2911150979214767
  0.2120230207852174  0.7792905759815270  0.4144882863741373
  0.2061795986143196  0.8784770069284065  0.5052706762124686
  0.2035379510392588  0.0117068766743671  0.5865144808314113
  0.1943407653579712  0.1029607764434175  0.6950040374133977
  0.1710379718244823  0.1787958933025422  0.7926210351039273
  0.4114931284064696  0.3980319140877597  0.0039050166281740
  0.3968883672055412  0.5198645630485004  0.1192136868360265
  0.3854147270207875  0.6122388780600474  0.1988938438799082
  0.3771572549653612  0.6716515727482673  0.2916543515011583
  0.3973732600461872  0.7866859131639714  0.4281763704387984
  0.4083283464203262  0.9018306799076186  0.5121487002309451
  0.4026793625866034  0.0033580678983824  0.6086581270207887
  0.4037521436489584  0.1087617709006921  0.7025254254041542
  0.4041854669745959  0.2053983676674349  0.7986400618937637
  0.3988201094688222  0.3204223685912240  0.8924853935334909
  0.4989673196304878  0.4008008106235579  0.1026021390300258
  0.5207218041570414  0.5152456300230952  0.2037229233256355
  0.5100853898383377  0.5970083154734382  0.3079718794457307
  0.4843689140877601  0.7139096272517307  0.3961060969976913
  0.5082709944572770  0.7841308258660504  0.4970279778290987
  0.4839045625866021  0.8926201852193998  0.6067694739030003
  0.4892378050808333  0.9916840290993036  0.6814224300230975
  0.4948167958429579  0.0965389418013842  0.7834102840646651
  0.5084077976905306  0.2114457510392640  0.8908823815242499
  0.5029891870669729  0.2883152180138566  0.9920796517320980
  0.6019418983833731  0.4248209408775949  0.1813027418013888
  0.6219478295612006  0.4918204702078555  0.2983317265588923
  0.5880292272517309  0.5939901371824448  0.4149122914549679
  0.5887248683602806  0.6823472327944557  0.5051139196304817
  0.6000844152424918  0.7964089999999970  0.6020312115473416
  0.6237740475750542  0.9137346221708995  0.7070419967667405
  0.5908527949191722  0.9996536674364904  0.7975552678983817
  0.6168312443418031  0.0981411755196291  0.8959886993071606
  0.5947346868360270  0.1935091297921474  0.0033698628175500
  0.6030500152424949  0.3007858757505772  0.0980263168591193
  0.6895265907621280  0.3985054946882229  0.3098404383371829
  0.6974213256351049  0.5071729612009221  0.4092704101616604
  0.7117808355658184  0.6168914083140891  0.5009607418013857
  0.6909709016166303  0.6949133510392613  0.6051194327944600
  0.7104422572748277  0.7762528189376425  0.7051853916859088
  0.7155909819861463  0.8775406891454978  0.8006984060046207
  0.7127060849884543  0.9916859140877605  0.8980462780600433
  0.6958707242494242  0.1055184175519628  0.9900154988452670
  0.6840286069284076  0.2173443736720557  0.0796119154734427
  0.6837229431870639  0.3164716258660505  0.2118098872979246
  0.7927041801385712  0.4097257833718260  0.4068900263279431
  0.8042663852193996  0.5127211579676683  0.4929381030023094
  0.8069623745958410  0.6044335228637436  0.5950650083140872
  0.8006782064665146  0.6821858706697483  0.7139513986143200
  0.8129049344110868  0.7689400083140896  0.8141313293302517
  0.7957891870669727  0.8871134355658228  0.8896132083140884
  0.7993283080831404  0.9895522780600459  0.0165581182448022
  0.7799014831408755  0.1150828397228665  0.1006462549653548
  0.7874960484988449  0.2026279478060076  0.2071484808314068
  0.7914472988452630  0.2940395875288715  0.3004822711316422
  0.9179381422632815  0.4043828000000005  0.4836701408775994
  0.9017202124711332  0.4916935136258687  0.5916215787528856
  0.8882845759815226  0.5921600702078536  0.6953968397228607
  0.8962993593533497  0.6782509893764441  0.8200018766743682
  0.9071039852194005  0.8076128609699751  0.9001057833718278
  0.9056269958429581  0.9057575704388015  0.0126200189376462
  0.8980068032332582  0.0030100923787515  0.1104776406466499
  0.8747897709006907  0.1085621016166272  0.1767513422632803
  0.9117204702078539  0.2080981755196305  0.2966793944572714
  0.8981108937644322  0.3022990849884550  0.3880122595842934
  0.9952967385681291  0.3924002942263272  0.6020135381062346
  0.9796676937644335  0.4987138711316419  0.7212018840646621
  0.9939752050808295  0.6000007302540382  0.8181436138568117
  0.0211532341801401  0.6995420812933020  0.9112651533487295
  0.0165970120092354  0.8309897584295598  0.0063785778290963
  0.0403676240184723  0.9274426826789863  0.1038827598152423
  0.0157499431870676  0.0235349787528847  0.2051442623556596
  0.0006944623556606  0.1042477759815270  0.2893171196304820
  0.0034833759815243  0.2020473376443448  0.4047655191685919
  0.9950490078521952  0.3007100184757476  0.4882275630484969
  0.1096780956120114  0.3860804545034640  0.7058182983833703
  0.1044674563510384  0.4874690258660479  0.8214649418013877
  0.1030731408775978  0.5922740318706730  0.9051575598152439
  0.0949907025404144  0.7062492258660527  0.0078722646651244
  0.1143801048498858  0.8244311053117812  0.1007344923787556
  0.1253114443418042  0.9329608060046155  0.1870069829099279
  0.1117012360277130  0.0186723930715971  0.2935795279445728
  0.0965718018475741  0.1000686498845269  0.4162760212471142
  0.0857765981524281  0.1965588558891440  0.5017380198614347
  0.0859351390300205  0.3120371140877580  0.6000256032332558
  0.1973271935334893  0.4049004863741317  0.8115909995381045
  0.2076791856812932  0.5112247427251759  0.9014679630484963
  0.2003505861431876  0.6130205690531199  0.0155745422632805
  0.1886278554272494  0.7337918937644332  0.0979277404157060
  0.2038798637413421  0.8249742027713651  0.2085426212471120
  0.2045406471131628  0.9301343200923782  0.3094044258660489
  0.2072038096997701  0.0060676775981534  0.4029113519630485