Li 
 1.0000000000000000
    21.6499999999999986    0.0000000000000006    0.0000000000000000
     0.0000000000000006   21.6499999999999986    0.0000000000000000
    -0.0000000000000006   -0.0000000000000006   21.6499999999999986
 Li 
 500
Cartesian
 -0.0066301200000000  0.0345729900000000  0.0164194700000000
  0.1681991700000000  2.2805864699999998  2.3188379499999998
 -0.0533760900000000  4.3249639300000000  4.1087607700000000
  0.1017679000000000  6.4391006300000004  6.4734689599999999
  0.0116250300000000  8.7528515400000000  8.0548043499999995
 -0.1134002600000000 10.7755452700000003 10.0570050000000002
 -0.4807621100000000 13.1715517200000001 12.8600278299999999
 -0.1979693900000000 15.0191343300000000 15.2518071499999994
  0.4790954500000000 17.2883663200000015 17.2242186100000012
 -0.2835208200000000 20.1060424399999995 19.3934907299999999
  2.6907284100000002  0.6495586900000000  2.3421314400000002
  2.7558755599999998  2.4501880800000002  4.1270103100000002
  1.9419387500000000  4.5707326799999999  6.6816139699999999
  2.3340503400000001  6.5187134799999997  8.5902494100000002
  2.2501994900000000  9.0309690600000003 10.5468138699999994
  1.6747927700000000 10.6129499400000000 13.1307642300000005
  1.3838861099999999 12.3260199700000008 15.4768693299999995
  1.6872125300000000 14.9131622600000000 17.5830300199999989
  2.1961050900000001 17.6469404099999991 19.4340712099999990
  2.4298154699999999 19.6774048300000004 22.0293684399999989
  4.7654349199999997  0.2959820200000000  4.0741055299999998
  4.5098031699999996  2.1920659100000002  6.8695739400000004
  4.3338754899999996  4.3555704600000000  8.7328935199999993
  4.5269975699999998  6.3366761599999997 11.1171157800000007
  4.0398835399999999  8.8373836000000008 12.5225790099999994
  4.1741691799999998 10.8643094599999994 14.8505162399999993
  4.2382577699999997 12.9755742200000004 16.9214925399999991
  3.9098967800000000 15.1168861600000000 19.1112114300000009
  3.9970745000000001 17.3691879399999998 -0.5787633000000000
  5.0449296099999996 19.7755377800000005  1.8263418899999999
  6.6731060099999997  0.1395205400000000  6.3835977899999996
  6.5342683499999996  2.1562815099999999  8.8924427000000001
  6.3132876900000001  4.1038546399999998 10.7123389899999992
  6.0706648500000000  5.8710015599999998 12.9706564699999998
  6.0053566299999996  8.2620038299999994 14.5716760200000000
  6.2796696499999998 10.6724045600000004 16.9327737499999991
  6.3978754999999996 12.5912530900000004 19.5638989899999984
  6.4171590800000002 15.2481356399999992  0.0424623700000000
  6.4335060999999998 17.0646844100000017  1.9855890000000000
  6.6684508200000003 19.5821737999999996  4.6684136000000001
  8.4772881499999997  0.0138293200000000  8.6366402299999994
  8.7397335500000004  1.8721183699999999 11.1036897200000002
  8.6560408100000004  4.2747127599999999 12.7319919000000006
  8.6632761100000000  6.3656026099999998 15.0169622199999999
  8.1855000600000007  8.4428147899999999 16.9297527899999984
  8.2622526399999998 10.5989545100000004 18.8286723500000015
  8.5521427400000007 13.5612100800000004 -0.3267321000000000
  8.6246466399999999 15.4260317600000008  1.9789597999999999
  8.7148740999999994 17.5158039700000003  4.0409639100000003
  8.5105618900000000 19.4925733900000004  7.1069178099999997
 10.6108781699999994 -0.1419295400000000 10.6657408700000005
 11.2429910799999995  2.1122338699999998 12.9958065999999999
 11.0083758899999999  4.5330489500000004 15.2628021700000005
 10.7498822300000008  6.5835908900000000 17.1288478600000005
 10.6834305799999996  8.5903805400000000 19.3469395400000010
 10.2327349999999999 11.0278104799999994  0.0457325400000000
 10.5100754999999992 13.2340064799999997  1.9290109499999999
 10.7119734799999993 14.6655607299999993  4.1427670799999996
 10.4660671000000001 17.0174467699999994  6.5601725200000001
 10.8557497699999992 19.2672313300000013  8.4239269199999995
 12.7406097700000007 -0.0910299000000000 12.9230000900000004
 12.8291937199999992  2.1165048099999999 15.1483099200000009
 13.2322579800000000  4.3092100799999997 17.5919463500000006
 13.0795799699999993  6.1129474799999999 19.3766342499999986
 12.6751556099999991  8.7310537999999998 -0.3635566000000000
 12.4679134600000001 11.1185976800000006  1.6595949400000001
 13.3197790999999999 13.0188992999999993  4.2814763400000002
 13.0871579499999999 15.4039388000000006  6.2155315699999996
 12.9735473900000002 17.2762012200000008  8.4096017199999995
 12.5276933800000005 19.2716334200000006 10.5743851000000006
 14.9887842500000001 -0.1280789200000000 14.8988426100000009
 15.4841961000000001  2.0914317699999998 17.2282770700000007
 15.3373118300000009  4.4971299699999996 19.6864104100000006
 14.8458192400000009  6.6771466700000000 -0.2054101000000000
 14.9139347699999991  8.6879982400000006  1.9418116599999999
 15.2759634500000008 10.9815883599999999  4.1545614600000000
 14.6552105499999996 13.2971524799999994  6.6374090199999998
 14.9173122100000004 15.2285987600000006  9.0554382800000006
 14.9542118599999991 16.9269586600000004 10.5102987199999998
 15.1290321700000003 19.5501575400000007 12.8685600099999995
 17.0353074900000010  0.0330269800000000 17.0179376600000012
 17.1195866700000003  1.8774590900000001 19.5818115299999995
 17.4677051399999996  4.4643824299999997  0.0167962000000000
 16.9419822199999999  6.1188649100000001  2.1186230600000000
 17.1194293799999997  8.5012692500000000  3.9635116099999999
 16.9327086999999992 10.8797005200000001  6.4157828300000004
 17.5296210300000013 13.1258356200000001  9.1007498200000008
 17.2503737900000012 15.3329687799999999 10.7154922900000003
 16.9493956499999996 17.5474980900000013 12.9770131000000006
 17.2847843899999987 19.6099857399999991 15.1926957100000006
 19.1140429500000018 -0.0981329900000000 19.5941737499999995
 19.0980371600000005  1.7191598699999999 22.1746705099999986
 19.8432600500000014  4.4340053900000003  2.0091694300000000
 19.2157353800000017  6.6064393900000002  4.2378609500000000
 18.7196400499999989  8.6597922500000006  6.3439458799999997
 19.2595307899999995 10.6000692500000007  8.3026302899999997
 19.6530719500000011 13.0959158500000008 10.8367301900000008
 19.2538140599999998 15.3492519200000004 13.0319412900000007
 19.1583206500000003 17.0797854099999995 15.2632109000000007
 19.3762931599999995 19.3418126699999995 17.2413643900000011
  2.1168123900000002  2.4609131899999999  0.0667089500000000
  2.4983268299999999  4.4550058899999998  2.3357578999999999
  2.3087228999999998  6.2708242700000003  4.5132493299999998
  2.4950398200000001  8.6079841100000003  6.3133626500000002
  2.6422062999999998 10.6057086999999992  8.1809229400000003
  1.9331016299999999 12.9256342899999996 10.0775944699999993
  2.1963063200000001 14.7867524800000005 13.1516924999999993
  2.1387652099999999 16.9509210599999989 15.1094965400000003
  2.0853077199999999 19.8762180499999985 17.4478355699999987
  2.0842515900000000 21.6337663700000000 19.5685499999999983
  4.6655680000000004  2.2834588600000001  1.8417013600000001
  4.4656647700000001  4.1069129799999997  4.5085736900000004
  4.4260864299999998  6.1510844899999997  6.2345256600000001
  4.5788488999999997  8.1776706099999998  8.4224900599999994
  4.1423654699999997 10.6266040499999992 10.6498345299999997
  3.4442716600000001 12.5644040100000005 12.6075853700000007
  3.9029940500000002 14.7148504599999992 15.0144197599999991
  4.2193223399999997 17.1902935200000009 17.4219365500000016
  4.0343874900000003 19.8557911300000001 19.5303563300000000
  4.8554821800000001 21.7305436100000016 21.5644788299999988
  6.6997818300000000  1.9986222300000001  4.3301651200000002
  6.6293339099999997  4.1290619299999998  6.8378935600000004
  6.4551698100000001  6.3206323800000002  8.6627165099999992
  6.6207829000000000  8.9050718500000006 10.8337552499999994
  6.4369995199999996 10.8413311399999994 12.7351062099999996
  6.4349672599999996 13.1192511300000003 14.7712241300000002
  6.2487612300000004 14.8190807400000004 17.2138783999999987
  6.4680122999999998 16.9953944999999997 19.2553118499999982
  6.6190569600000000 19.1903915599999983 -0.0499539500000000
  6.7070600799999998 22.0936385400000006  2.3186861799999998
  8.5250666499999994  2.4618353200000000  6.5161229100000000
  8.7406228499999994  4.3314022400000001  8.9843212799999996
  8.3421187400000001  6.5533634899999997 10.8659247699999995
  8.2008149800000005  8.4573955000000005 12.7982350599999997
  8.6407001200000000 10.6742447299999998 15.2414892700000006
  8.5939490599999999 13.1038162299999996 17.0982125499999995
  8.6153924800000006 14.8276903299999994 19.7494195899999987
  8.6635242600000009 17.2657824899999994 -0.2706414800000000
  8.4376244499999995 19.3250402600000015  1.9997292799999999
  8.7768735499999995 21.7178488399999985  4.2937732700000000
 10.5911234400000005  2.0846987900000000  8.9215822399999993
 10.8945080999999995  4.8286106899999997 10.6553994400000001
 10.6901811400000000  6.1623586000000001 13.1443023300000004
 10.4941195300000008  8.2534737699999994 15.1739984099999994
 10.8730190499999999 10.5852095899999998 17.4773082600000009
 10.8674857599999992 12.5125175899999999 19.5268311899999993
 11.2540241900000009 15.3955216200000002 -0.3202709100000000
 11.1606223399999998 17.9334541700000010  2.2407816399999998
 11.0154695100000009 19.6481031600000016  4.7546684299999997
 10.5725796699999997 22.0470069100000003  6.6187314300000004
 12.8155861400000006  2.4651138100000001 10.9944710200000006
 13.1423722400000003  4.5835039899999996 13.6506450400000006
 12.8003605500000006  6.6147429799999999 15.6985579600000005
 13.0046130699999996  8.8434530000000002 17.1578610400000002
 13.0485113399999992 10.7497798400000004 19.6834346099999991
 13.0405917599999999 12.9614598599999997 -0.3032614200000000
 12.6198678799999993 15.1289955900000006  1.8380991799999999
 12.6651580900000003 17.2005180799999984  4.2976684799999996
 12.9448037599999992 19.3005655500000017  6.2765057400000002
 12.7601815100000007 21.5915929800000015  8.6368213800000007
 14.6356658700000004  2.0430791199999998 13.4079736000000000
 15.2518731499999998  4.5016284500000001 15.5892948100000002
 15.4141940000000002  6.8100375000000000 17.4075511799999987
 15.4314923700000008  8.6550052199999996 19.3660772299999984
 15.2853677599999997 10.6659759800000007  0.0477781600000000
 14.9055742400000000 12.9401323399999999  1.6992875700000001
 15.1508285500000000 15.3354123399999995  4.1466640400000001
 15.2115774500000001 17.0448426700000013  6.2195369400000002
 15.3514644699999998 19.2489535099999998  8.3772473499999993
 14.7955035699999993 21.7937352799999999 10.5668640699999994
 17.5668979299999997  1.9738516200000000 14.7147366200000000
 17.4547784899999989  4.4120521899999998 17.4745903100000000
 17.4880105000000015  6.1085250899999997 19.2871421500000011
 17.2005999100000011  8.0569109700000006 -0.1510450200000000
 17.3243670899999991 10.6490036900000007  1.7495103200000000
 17.3477380100000005 12.9577135899999991  3.8464210799999998
 16.8419308900000004 15.2051093599999998  6.0976269399999996
 17.2428344399999993 17.2409006200000015  8.2610351299999998
 17.1276364200000017 19.2422670599999996 10.7606827299999992
 17.1378117699999990 21.2824933499999993 12.7382770999999995
 19.2079364999999989  2.0370269400000001 17.5514925800000015
 19.5224168099999993  4.1166279399999999 20.3823522699999984
 19.4547402500000004  6.5102287399999996  0.3332678500000000
 19.3194032500000006  8.2447448899999998  2.3615834900000001
 19.5550321400000016 10.8259346999999995  3.9404595599999999
 19.2288134299999989 13.0916765500000007  6.2106741500000000
 19.7167787700000012 15.4004939899999993  8.0762827599999998
 19.5449175400000001 17.3445275499999987 10.5975012900000003
 19.4510695700000014 19.2741991699999993 12.9268061500000009
 19.4654193500000012 21.4251356400000006 14.9894991799999993
 21.2399683500000016  2.1741171800000001 19.7653339099999990
 21.4180294300000007  4.3163038499999997 21.9041439199999992
 21.8303326899999988  6.4283142099999999  2.3894857599999999
 21.5853062199999997  8.4642961700000008  4.5657031100000003
 21.4101228299999988 10.4860735999999992  6.3370605199999996
 21.4103511100000006 13.0981801200000003  7.9082194100000001
 21.5168673499999983 15.1090961400000001 10.6058431100000004
 21.6902133600000013 17.5741522900000007 13.1415644799999995
 21.9914098399999993 19.5512871200000014 15.5234183199999993
 21.2061296800000001 21.6714861100000000 17.2712497200000001
  4.7513222700000002  4.5138963499999996  0.1298914500000000
  5.0568430199999996  6.0792885999999999  2.5587032399999998
  4.8430175599999998  8.6065905600000008  4.4866187200000001
  4.6108340099999996 10.6937361800000001  6.4915311400000002
  4.5136709599999998 13.5615441000000008  8.3578079899999995
  4.3016459100000004 15.2325868300000007 11.0808150199999993
  4.2484878899999998 17.1135424100000009 13.2119930900000000
  3.9364904599999999 19.2126036400000011 15.2821921599999992
  3.9712049100000000  0.3977882500000000 17.0961493299999994
  4.6090715400000004  2.5319945700000002 19.6475400399999991
  6.9229966999999997  4.5437366600000004  2.1897508499999998
  6.8999874999999999  6.4110363299999999  4.7697450999999997
  6.8141345500000003  8.7389761900000007  6.4957775299999998
  6.4628863799999996 11.1144164100000005  8.5514863600000002
  6.4124111900000003 12.6157812099999997 10.7563148900000005
  6.2098806299999998 14.5120274400000007 12.8610368499999996
  6.4015135900000004 16.9644461299999989 14.7978992199999997
  6.3764628200000004 20.0501105700000011 17.2210530900000016
  6.2336177900000003  0.1427587300000000 19.3921078400000013
  6.9786264899999999  2.4564406499999998 21.3190151499999985
  8.5855343200000007  4.2615713399999997  4.4259483700000004
  8.9140802000000008  6.0405572899999997  6.4588921199999998
  8.7814227200000001  8.7975624400000001  8.8031756100000003
  8.7368280899999995 10.5262347599999995 10.7442133500000008
  8.8201243599999994 12.5923676300000000 13.1466550699999996
  8.7752774900000006 15.3300978499999996 14.8215052099999998
  8.3166520899999998 16.8692302000000005 16.8249165100000013
  8.1448089899999996 19.4833552400000016 19.0274642900000011
  8.6811053400000002 -0.3145411100000000 -0.3883956800000000
  9.1503997300000002  2.1313206999999998  2.2759702200000000
 10.6740197400000003  4.4823451700000003  6.5605169800000001
 10.7254863900000004  6.6874968199999998  8.8291216000000006
 10.9515270299999994  8.8590822100000004 11.1920546200000004
 10.6752879600000004 10.2838142200000000 13.2770473300000003
 10.5701554499999997 13.1833999599999991 15.4984725700000006
 10.5211792000000006 14.9272122899999999 17.3585300099999991
 10.5524336699999992 17.6989517300000010 19.1483597500000009
 10.9112177300000006 19.3692146500000000 -0.2997697000000000
 10.6435323900000007 -0.0800172200000000  1.7991730900000000
 10.8815749000000004  2.1678817200000000  4.8295231599999999
 13.0415559099999996  4.4682704400000004  8.6402474900000001
 13.1771923399999995  6.4492748799999999 10.8352061299999995
 12.7718092599999995  8.4745620299999995 13.1041931300000005
 13.1883457899999996 10.8457389800000001 15.0168754700000004
 13.0826947699999998 12.7505492999999994 17.1251012600000010
 12.8599778300000001 15.4197002199999993 19.2343505700000001
 13.3809112199999998 17.9756749400000011 -0.3443424200000000
 12.6195705900000004 19.6662565200000010  1.8840979400000000
 12.8176691500000004  0.1479179100000000  4.4558001899999997
 12.9922655799999998  2.1815022900000001  6.9829927100000004
 15.2773133300000001  4.3580548600000002 10.9122223500000004
 14.9349196699999993  6.8163435999999997 13.4975959900000007
 15.2393401900000001  9.2554911900000008 15.0725237700000001
 15.5317632700000008 11.1603439299999998 17.7836873400000002
 15.2744662299999998 13.0092793600000007 19.3031345200000004
 14.5319438000000005 15.2579963599999999 -0.3402732500000000
 14.7383879199999992 17.2528532199999987  2.0312972800000000
 14.7923575500000002 19.8360523300000011  4.2401594600000001
 14.9156195999999994  0.1796287700000000  7.0283178900000003
 15.0556362200000002  2.5432634200000002  8.8481046499999998
 17.0718282700000010  4.2214124000000002 13.0569562999999995
 17.4268588099999988  6.4636696300000001 15.0047093599999997
 17.4471458000000013  8.9012572300000006 17.7703175800000004
 17.6428859500000002 10.7721085199999997 20.1078711500000011
 17.2689351699999989 12.8860121400000001 -0.0370535500000000
 17.1932006299999998 14.9211548700000005  1.7783774699999999
 16.8439540799999996 17.1234205700000004  4.2051954599999997
 17.2044999999999995 19.7928581000000001  6.2576953000000000
 17.0100747900000009 -0.0591044200000000  8.5983072299999996
 17.2146481000000016  2.2680916400000002 11.0840771399999998
 19.1820048099999987  4.2634966900000002 15.1639229600000007
 19.4698991100000001  6.2069700499999998 18.0927466999999993
 19.9875538599999985  8.7196092000000007 20.1353559900000008
 19.8209408600000003 10.4186311299999996  0.2725608200000000
 19.7368598900000016 12.6280259800000003  1.8534749500000001
 19.1555883000000016 14.9010817899999992  3.6426178199999999
 19.2155622199999989 17.1970834000000004  5.9886678199999999
 19.3625762799999990 19.4429420600000000  8.2413161800000001
 19.5558618399999986 -0.1099975300000000 10.5179766499999996
 19.5345197699999993  1.8983763199999999 13.1155974900000007
 -0.6164288200000000  4.4931666899999998 17.3232549700000007
 -0.2192046900000000  6.5698371299999998 19.9838173599999998
  0.1851685800000000  8.4777741100000004  0.2737158800000000
  0.1158731800000000 10.2885873599999993  2.4130600000000002
  0.1584509600000000 12.8684335200000000  4.1942441300000004
  0.5985108099999999 15.3102476799999998  5.8708989100000002
  0.2747023800000000 17.4959252999999997  8.2415559100000007
 -0.2499073500000000 19.3964001400000008 10.7823327599999992
 -0.1727612800000000 -0.2233805400000000 13.1851077100000005
 -0.3034382200000000  2.3357420599999998 15.6357511299999992
  1.9107954300000001  4.3422237399999997 19.4771035200000000
  2.3482504099999999  6.4339223700000003 21.9161644899999999
  3.0570126000000002  8.1156964499999997  2.6926568500000001
  2.7168131299999998 10.5229186699999993  4.2735193699999998
  2.6527841099999998 12.9097752000000003  6.3933503700000003
  2.0001333200000002 15.2552172099999996  8.4110484799999998
  2.0332690699999998 17.5248114100000016 10.9139023599999998
  2.2361824499999998 19.3468667900000000 12.9308176699999997
  2.0493725399999998  0.2276284600000000 14.9151886400000002
  1.6300598700000000  2.1024607300000002 17.8030240000000006
  7.2537940900000004  6.4891909400000003 -0.1196133200000000
  6.7912587400000000  8.6160756099999993  2.3251846999999999
  6.4076861500000000 10.4943070100000000  4.3868948600000000
  6.7010796199999998 13.0904895000000003  6.6234183000000000
  6.6045500800000001 15.4691065699999992  9.0311445399999997
  6.5869505899999998 17.5376190399999992 10.9248855200000001
  6.1416482400000003 19.4021459100000015 13.3332282099999997
  6.4944766800000000  0.1713983100000000 14.5697672199999992
  6.7704557400000001  2.1375530000000000 17.1041989100000009
  6.4690904500000004  4.4702226400000002 19.0079300700000005
  9.1160802600000004  6.9254533299999999  2.3788485000000001
  8.9283125099999996  8.6832443300000008  4.8149186700000000
  8.9746506999999998 10.8332996399999999  6.5300071600000003
  8.4425723200000000 12.8865252600000009  8.7936588100000002
  8.9081518099999997 15.0515162799999995 11.2015890099999993
  8.4680046600000001 17.2824228200000007 13.1409746199999997
  8.3779496099999999 19.5718153500000014 15.2652993200000004
  8.6542392499999998  0.3061704700000000 17.4035782099999992
  8.5640796399999992  2.5158666200000002 19.3014349900000006
  9.1725220200000006  4.2659735000000003 21.6652511799999985
 11.4328148699999996  6.6538361300000002  4.7257224700000000
 11.0667222499999998  9.1829827999999996  6.2119222799999996
 10.9437627600000003 10.8416091800000007  9.0937569400000005
 10.6913698099999994 12.9119347100000006 10.8987421300000005
 11.0915762000000004 14.8307272999999995 13.2573429500000000
 11.0406564500000002 17.2382972000000017 14.7848555800000003
 10.6697499300000000 19.3588033999999993 17.0528112000000007
 10.9754389099999994 -0.1434547900000000 19.3396320700000004
 11.0506735900000006  1.7034890300000001 -0.3857209600000000
 10.6974475099999999  4.2213323300000001  2.2144226400000000
 12.8470662099999995  6.7688063300000003  6.8438963700000004
 13.0245366899999997  8.9001669799999998  8.6986039799999997
 13.0576353800000007 11.2226277900000007 11.1627718399999996
 13.0550229000000009 12.7670303799999996 13.5161124800000003
 13.0728174700000004 15.2597341300000000 15.5302415699999994
 13.0966646400000002 17.3476887899999994 17.2557818900000015
 13.4947826000000006 19.6033508300000001 19.1297982699999984
 13.4388991099999995 -0.4107861600000000 -0.4560572600000000
 12.7746050100000001  1.6404512600000001  1.7471305200000000
 12.9531585600000003  4.1533755699999997  4.4865098100000003
 15.0375269100000004  6.0317623899999999  8.8311904699999992
 15.2939190600000003  8.8967216600000008 11.2504335100000006
 15.6779496900000002 10.7762932100000004 12.7093733499999999
 15.7995859700000008 12.7885240299999996 15.1583685199999998
 15.2195389100000007 14.8467463199999994 17.6701733300000008
 15.5268520999999993 16.8423083099999999 19.5657768599999997
 15.4805281499999996 19.6713038699999991 -0.1467774100000000
 15.5109005900000003 -0.0073915300000000  2.3031384300000002
 15.0618235200000008  2.6780432799999998  4.4834989199999997
 14.8193819399999995  4.9067525999999999  6.3472942300000001
 17.2520378699999988  6.2975482200000004 11.1400918499999992
 17.8574489099999987  9.1451542600000000 12.9319950400000003
 17.8698395699999999 11.0143799700000002 15.2712239600000004
 17.3313883100000012 12.7051218899999991 17.6214397200000015
 17.5134078799999990 15.4015847000000008 20.2467193200000004
 17.6377287199999984 17.4791856199999991  0.3604332700000000
 17.2353604900000015 19.5435464900000007  2.8094121300000001
 17.0101573299999984  0.2940184700000000  4.6171442599999999
 17.1734676800000017  2.0602094399999999  6.2701472799999998
 17.1496395899999996  4.2029440100000004  8.7243036800000002
 19.3324850400000017  7.0892026299999999 12.9049159499999995
 19.4281398500000009  8.1624634999999994 15.5026972099999991
 19.4528652899999983 10.7014288299999993 18.0539445100000009
 19.6017658300000015 13.1598686100000002 20.1354315899999996
 20.4483489899999995 15.3511359400000007  0.1541134400000000
 19.8389922699999985 17.6131453799999989  2.3879404000000002
 19.7542661700000011 19.6312630900000009  4.5675998499999997
 19.4633541500000007  0.1757925600000000  6.7713654400000003
 19.5336291499999994  2.2240616599999998  8.9862474399999996
 19.4716579900000006  4.4745961000000003 10.6082164500000005
 -0.4700949500000000  6.2693485300000003 14.9506340400000006
  0.2294831200000000  8.4867487300000004 17.6441075699999992
  0.0190542700000000 10.8778000699999993 19.9774310700000015
  0.6569645300000000 12.6414522900000001  0.2345094400000000
  0.3528849400000000 15.6463307599999997  2.1565304799999998
  0.5410152800000000 17.1010620099999997  4.0479744799999997
  0.8177044700000000 19.5788589600000016  6.1306987099999999
  0.2902407000000000 -0.0541978900000000  8.5893773400000004
 -0.0123702100000000  2.2770001400000002 11.2059819899999997
 -0.1596181600000000  4.4460049000000001 13.0376788200000000
  1.9833209500000000  6.5963178100000004 17.0410953899999988
  2.1699999100000000  8.9557675900000007 20.0548223300000004
  2.3074778299999998 10.6866270599999993  0.2913346100000000
  2.4379185900000002 12.9338081999999996  2.2847786299999999
  2.6506855100000002 15.3585424899999996  4.4912169300000002
  2.9545866400000000 17.6008242499999987  6.3259515400000002
  2.6483378499999999 19.7357082300000002  8.7700442600000006
  2.2140306999999999 -0.1325967800000000 11.0211179500000007
  1.7199878600000000  1.9009808399999999 13.2885216899999996
  1.8354978399999999  4.5489649800000000 14.8429098400000008
  4.2699751700000004  6.1515449899999997 19.4526378000000015
  4.7213182600000003  8.2512702800000000 21.9842402899999989
  4.5844600299999998 10.5114403799999998  1.9283812400000000
  4.8854388699999998 13.1532094100000005  4.0097822599999997
  4.6025773799999996 14.9206551500000000  6.3026418700000004
  4.5902984000000000 16.8716409700000014  8.9736714000000006
  4.4637883100000000 19.0190272000000000 10.9391101400000004
  4.4065966400000001  0.2534538800000000 12.6980385099999999
  4.2074775700000000  2.2291008099999998 15.0468374100000002
  3.7029720899999998  3.8709310900000000 17.1602454100000017
  8.9088262300000007  8.6173909399999999  0.0845436100000000
  8.5926331499999993 11.2550677900000000  2.5809763200000000
  8.3442288399999995 13.2549717099999995  4.3060517200000001
  8.1654545699999996 14.5412565499999999  6.3143167099999999
  8.6031310800000007 17.0317500200000005  9.2700184199999995
  8.8403086999999996 19.5246342199999994 11.0880193600000005
  8.7180081999999999  0.0727021700000000 13.1774484500000000
  8.7412339100000001  2.3546923400000002 15.2096754599999997
  8.7506153599999994  4.4468746599999998 17.2905573399999994
  8.6344553699999995  6.9371442800000001 19.3223087699999994
 10.8026424700000003  8.6773375500000007  2.2213363099999999
 11.2736270600000008 11.1550678899999998  4.4106012899999998
 11.0433486900000002 12.9252300299999998  6.6675911899999996
 10.4865869899999993 15.4561434299999991  8.5756969999999999
 11.0040670299999999 16.9764323799999985 10.7606557200000008
 10.4765337800000005 19.3252270099999990 13.1365591100000003
 10.5919984800000009 -0.1800407700000000 14.7527956099999997
 10.7127836300000006  2.0900680899999999 16.9608326500000004
 11.0070288200000004  4.5778005100000003 19.2876035600000009
 10.8897159000000006  6.2420244699999996 21.4785244599999992
 13.0320421000000000  9.1973733699999993  3.9252043599999999
 13.4651705100000001 10.6479131799999998  6.4588818799999999
 12.7308327699999992 12.8598864699999993  8.9828511100000004
 12.7458933999999999 14.7728175900000007 10.9357163600000007
 12.9918275899999998 17.2422548499999984 13.0339757299999999
 13.5047081299999991 19.7823545699999990 15.3074592299999992
 12.7919630099999999 -0.0074981000000000 17.2670715500000007
 13.3543964400000004  2.1247564500000000 19.3981553399999989
 12.8760059699999996  4.1894726599999998  0.0729575300000000
 13.0560328299999995  6.5120142100000002  2.1222697600000000
 14.9282506900000005  8.6276439600000003  6.7080454899999999
 15.0991716999999994 10.9802946099999996  8.8607043799999996
 15.4100550900000002 13.3556989900000005 10.8458000600000002
 14.9595200199999994 15.0448740500000007 13.1008357199999992
 15.3810748700000008 16.8058735299999995 15.2672637299999998
 15.4925447599999995 18.9987559200000007 17.3351204900000013
 15.4300867400000001 -0.1799999600000000 19.4427019200000011
 15.0656011799999998  2.2844737400000001 -0.2161644500000000
 14.8092193400000003  4.7055056899999999  1.7235979699999999
 14.8026017200000002  6.8516107000000002  4.5856840600000002
 17.1620455000000014  8.8705632100000003  8.8091690699999994
 17.4123672399999982 11.1004130700000001 10.6721099299999995
 17.4707354099999996 13.0859857700000006 12.8831574300000007
 17.3346831700000017 14.7693241000000004 15.4570477799999999
 17.5993918299999983 16.6475511800000007 17.6259432800000013
 17.2288359000000000 19.2060058799999993 19.2601259599999999
 17.3054578700000015 -0.2261931800000000  0.3584832600000000
 16.8848671099999983  2.4915434799999998  2.1789914200000000
 17.0492894499999998  4.3868950699999996  4.4847646100000000
 17.1348340199999996  6.3659570700000003  6.5054411700000001
 19.8733607799999987  8.7548876199999999 10.4714585499999995
 19.5222425999999984 10.6451645700000004 12.8086071799999992
 19.2313610699999984 12.8202655199999995 15.0553415800000003
 19.4048811299999997 14.6841339200000007 17.7530406300000010
 19.6388012799999991 17.4848184400000015 19.4872902100000012
 19.6068244599999986 19.6096514000000006  0.2732234100000000
 19.4418472899999983  0.0651685000000000  2.3918409199999999
 18.9391985399999996  2.3503694999999998  3.8266665600000001
 19.7387481800000018  4.5053254999999996  6.4231088900000000
 19.4441008500000017  6.5447751900000002  8.4004654199999997
 -0.1018256100000000  8.4954663700000008 13.0335930999999992
 -0.4401944300000000 10.7971553100000008 15.6140207899999996
 -0.1304368100000000 12.9900158099999992 17.7128092399999986
  0.4579675200000000 15.1450860600000006 19.7288905700000008
  0.3593253100000000 17.9909282700000013  0.1380962100000000
  0.8739590600000000 20.0791340799999993  2.2490617500000001
  0.3409862700000000  0.5095322900000000  4.4413732799999996
  0.0150351100000000  2.2569643500000001  6.2637156400000000
  0.0754150900000000  4.3743248599999998  8.7631734899999998
 -0.1071889800000000  6.5103719000000000 10.5701267399999992
  2.3745307699999998  8.3586418400000007 15.2809661600000002
  2.2617204300000000 10.5537044099999999 17.7847159899999987
  2.2315334999999998 12.8227327899999999 19.5966611700000009
  2.0565487099999999 15.2902957399999995  0.1704345300000000
  2.4763292699999999 17.8489334299999989  2.1809017599999998
  2.7129927700000001 20.1986014500000017  4.0487011800000001
  2.4183317600000001  0.4042573100000000  6.3559967799999999
  2.0907795100000000  2.1664862700000000  9.0123758600000006
  1.8570633500000000  4.2554992299999999 10.8626281299999992
  1.8604957600000001  6.7556035200000002 12.9905543100000003
  4.2721337400000001  8.7660955299999994 17.5709451399999992
  4.4962543699999999 11.0680156800000002 19.5167813999999993
  4.3375901900000002 13.2718953200000005  0.3371888400000000
  4.0837930699999996 15.8865944999999993  2.1201355799999999
  4.4139990500000001 17.8606914900000007  4.5149477500000001
  4.4283050099999999 20.1374080299999996  6.6986058200000000
  4.4859624800000004  0.1313652200000000  8.7230307699999994