Li                                      
   1.00000000000000     
   -10.5278949999999991   18.2348490367503473   -0.0000000000000021
   -18.0478199999999980  -10.4199137352859115    0.0000000000000046
    -0.0000000000000002    0.0000000000000000   22.0820499999999988
   Li
   504
Direct
  0.9927607668741771  0.9679154000997983  0.9906632495624308
  0.9446445925526064  0.0587821170251246  0.6674066588020580
  0.8848534150455336  0.0924358701499273  0.3112847059036667
  0.8240730580414422  0.1337227921494559  0.9861255852604245
  0.7178238317009829  0.1608003615591471  0.6585617100767394
  0.6611004699533112  0.2020882227261183  0.3375325035492622
  0.5576026920832504  0.2543326394007792  0.9949927873544340
  0.4972261208853084  0.2719761615564735  0.6597867032272831
  0.4200667197005572  0.3199508080199180  0.3516978102123645
  0.3499885513299787  0.3672014514991773  0.0024704092237826
  0.2746734973663152  0.3964083939470058  0.6613490613416815
  0.2176016640703651  0.4627382891031644  0.3424193315385153
  0.0706520782264874  0.0719248191138746  0.6705626493011323
  0.0014391434757854  0.1034624557756558  0.3191093172961743
  0.9409165978704692  0.1187063309509071  0.9959725478386261
  0.8630193391061880  0.1741462761109460  0.6508315772312798
  0.7971392443989274  0.2124838803018179  0.3107041696762778
  0.7146342539493631  0.2751241469062577  0.9909719292366432
  0.6507722376569660  0.2861271817334412  0.6490181826415551
  0.5678581717532154  0.3240373742031011  0.3402315052270950
  0.4943018744185181  0.3691465156356060  0.9921925645490361
  0.4203399369797722  0.3894945311494880  0.6661504842168213
  0.3599014045441606  0.4542939231777865  0.3324917034423862
  0.3008637589960799  0.4948004116831868  0.9948231418731481
  0.1453698834812727  0.1063600839628762  0.3333701812105332
  0.0663970537853587  0.1336626384482074  0.0025474727210550
  0.0031467045141227  0.1876568790734439  0.6539779653610083
  0.9362486642208978  0.2290896866874874  0.3251894855776527
  0.8683029106398052  0.2543847666139030  0.9711629373178639
  0.7801407813373373  0.3121990899101732  0.6870374657244227
  0.7139208625195153  0.3124663893525650  0.3332550827482024
  0.6340478267621634  0.3729005893714472  0.9823131457450742
  0.5620807574053686  0.3882916942054919  0.6700458408526373
  0.5161037299877478  0.4484738772649877  0.3428444066560843
  0.4201128194244390  0.4983841078282865  0.9925852676721618
  0.3536900405687220  0.5396519768230590  0.6746161144458966
  0.2136699632299894  0.1160873519605587  0.0145064009002809
  0.1444366214575012  0.1436410555480236  0.6696723977166954
  0.0740693579534835  0.2159292876784136  0.3200322365903503
  0.9944967313956212  0.2484502562649524  0.9848695841192310
  0.9193500511656083  0.2930656330284691  0.6534335820270343
  0.8637790378122432  0.3339231661614335  0.3140903661571244
  0.7756368191421572  0.3872595615391390  0.9784731666670439
  0.7051724249490334  0.4281665421774576  0.6655311196197786
  0.6466056451476803  0.4343652846425741  0.3386972237631909
  0.5666243121801244  0.5065584079916832  0.0088431626592609
  0.4806271603021557  0.5383245373785144  0.6513915374704808
  0.4341280603262234  0.5757622169509560  0.3238632078996275
  0.2795756698100007  0.1602125272573431  0.6909058348296497
  0.2134422121629882  0.1960942181260847  0.3435764356117303
  0.1458755082015486  0.2486081685534600  0.9844168888305234
  0.0824014462073137  0.2881690883708501  0.6660540629153573
  0.0307688495781306  0.3324942770024677  0.3351762399777201
  0.9271262946228376  0.3778082593062067  0.0007943877493233
  0.8544547897656116  0.4337814357135983  0.6742932843644525
  0.7945038476909403  0.4319545781381748  0.3329028224281743
  0.6918347966557050  0.5096003546944914  0.0214318942308367
  0.6461231903978017  0.5320797395157371  0.6654545203004218
  0.5756271126189034  0.5621028838494055  0.3495517698764417
  0.4938624854823672  0.6082476658345755  0.0037192439107798
  0.3525623603440664  0.1865826470646041  0.3418388111611037
  0.2822035379543806  0.2639981656392720  0.9978759059960467
  0.2040582006424643  0.2674421021346163  0.6877358660088149
  0.1659814849711907  0.3225803683923729  0.3493823023677578
  0.0565738346264411  0.3790335375300415  0.9873790943322760
  0.9904240582440238  0.4273592610815626  0.6602862528614892
  0.9319514077038917  0.4526635823379905  0.3344345316671209
  0.8596406874741476  0.4811998869971177  0.9952706306706105
  0.7732631223841366  0.5464330739207099  0.6623761620864030
  0.6949518964510375  0.5660646977924557  0.3461229795240897
  0.6532065471051141  0.6460129898660796  0.0071029872679418
  0.5665167702654159  0.6741427550200854  0.6593566525752834
  0.4086146579398005  0.2436203788462450  0.0185107175284926
  0.3230875056896068  0.2746017006091535  0.6492791769785882
  0.2677780998354891  0.3197714223453261  0.3384132270328166
  0.1990386205064354  0.3591376466721954  0.9966173027413703
  0.1244689121069129  0.4181147342213194  0.6742192264758060
  0.0648965709875284  0.4538672329834412  0.3389609710149202
  0.9865842473047906  0.5087610661964206  0.9884899142063333
  0.9432502281064075  0.5559277879416840  0.6584557452772728
  0.8316977936138770  0.5614632413832510  0.3412131486886381
  0.7794517733689119  0.6115160912735362  0.0244868008178614
  0.7082039989737297  0.6579217019132741  0.6535052728347210
  0.6502138237742514  0.7025506346891888  0.3244991031176880
  0.1532318538320396  0.5029368213003522  0.9966297381810136
  0.0710944788512364  0.5444209561916367  0.6697335324392455
  0.9880690133668963  0.5954665330505193  0.3383720646407369
  0.9174163139587890  0.6070173630585174  0.0096470259781114
  0.8554969506761623  0.6789440370339008  0.6766656198133774
  0.7824351983150279  0.7120800921017150  0.3458443622761465
  0.7104661940463259  0.7504261726918031  0.0200597589444840
  0.2128018390849107  0.5353599244843537  0.6724240797389740
  0.1344461261123300  0.5768054463715089  0.3064300479348603
  0.0731558450724208  0.6240157112848692  0.9890842127429309
  0.9847771472308651  0.6925676073649853  0.6720342767089136
  0.9263801730087522  0.7096156343803344  0.3571550435761139
  0.8455629898415538  0.7341318052297794  0.0030955848754957
  0.7698751958356738  0.8060968263833317  0.6743710475250282
  0.2805484700946934  0.6067709964102264  0.3349032268290273
  0.2323472389487264  0.6186125202272592  0.9715080461279655
  0.1305724603988025  0.6519613430890701  0.6602046164192217
  0.0569540550537937  0.7105763448754203  0.3320429647609728
  0.0162510152417354  0.7475499965032668  0.0217488448762708
  0.9081234201391837  0.8136372678658006  0.6729008008767323
  0.8842694534520916  0.8455710436135249  0.3178361959147793
  0.3557696963381787  0.6386893570951955  0.0161861593466170
  0.2789672654551083  0.6750920842989032  0.6557314497521745
  0.1961346923494389  0.7154809862403226  0.3292538084100016
  0.1454926886020687  0.7416439626021187  0.0059167708614041
  0.0689264982002555  0.8023768911829805  0.6884113445083244
  0.0171536972002713  0.8458783757270254  0.3400992036518318
  0.9235311827968147  0.8383102711734338  0.0091100219408986
  0.4330876649999666  0.6435820296903003  0.6489192810450106
  0.3706535401094655  0.7239658849849633  0.3280392626590398
  0.2965515338631377  0.7679485411201981  0.9826105610665650
  0.2113308773756799  0.7942226774608230  0.6691664129915509
  0.1275271469426258  0.8579386921710466  0.3394492893549312
  0.0583542529804362  0.8513180894877337  0.0114398042754189
  0.0180965117549121  0.9267980140747198  0.6764001575940668
  0.9553552878605061  0.9603830103419639  0.3315333236723959
  0.8658967122824990  0.9992454918236433  0.9821755326158552
  0.8006863825203610  0.0411908228747748  0.6617209276312650
  0.7369842023242299  0.0883344493280447  0.3392708552874382
  0.6510084429364085  0.1496079265336192  0.0031750313037051
  0.5655416200773331  0.1602830261879831  0.6542469331425309
  0.5003374098210571  0.1791182156532969  0.3319363867937994
  0.0615392501148975  0.9931026847791955  0.3433171489965829
  0.1211419982310744  0.9977599977467122  0.0121308134887812
  0.2192060902440502  0.0465901326891611  0.6689343308252660
  0.2819898454746763  0.0524919184575410  0.3201749479781100
  0.3470375167995812  0.1129238080872526  0.0029167183300487
  0.4134169016116900  0.1472764582429775  0.6629657889552831
  0.8684255027863728  0.9301774841140329  0.6668618411786937
  0.8033975324699085  0.9683241845772912  0.3166800387645168
  0.7158327030472549  0.0004944959974296  0.9975942152109951
  0.6618094645989032  0.0339223123178627  0.6654151974114697
  0.5987324533709497  0.0519588879885902  0.3457437792233975
  0.4937711659250681  0.1378874274628927  0.0079733032032792
  0.1475092744563469  0.9323159958929850  0.6769694367144368
  0.1906852809499924  0.9478977535299578  0.3588195470982072
  0.2565672443352440  0.0077380936422884  0.0262171456001568
  0.3577877280818385  0.0236597293449208  0.6735097230556022
  0.4335625660599476  0.0651337983529459  0.3545202483465104
  0.7922239219619271  0.8952354153075959  0.0019588946678439
  0.7078091733748764  0.9094632234071796  0.6577981210983594
  0.6517605904609951  0.9499109797465053  0.3395890734782299
  0.5630132821535341  0.0230208408484884  0.0028135807137488
  0.4855136481877622  0.0391007690021468  0.6713502165786238
  0.2300411991167550  0.8844040720721225  0.9953388833917174
  0.2898507548238598  0.9145812911223459  0.6638334244329656
  0.3529248221922714  0.9245193202872244  0.3321703936002294
  0.4075204436328548  0.0225791369306592  0.0202777753877044
  0.7396618723444419  0.8392037998192734  0.3153976410704615
  0.6570346052922176  0.8812665548590957  0.0093050341793415
  0.5722543646861382  0.8883743335922389  0.6746055918721297
  0.5152883164994577  0.9307971743494221  0.3339476801293344
  0.2708284534007745  0.8244547086342990  0.3437807300499713
  0.3766139321897342  0.8998389321463449  0.0058011181027098
  0.4309576664440726  0.9066656182426343  0.6681855411974880
  0.6384162482797890  0.7684167291017161  0.6884420219137297
  0.5733560759038880  0.8243996607497124  0.3137683213288653
  0.5214640918267861  0.8850339356762902  0.0033105037802201
  0.3514972455409904  0.7960222656340363  0.6563618712936545
  0.4380957095365474  0.8133066791473240  0.3297942097767219
  0.5660155785621868  0.7597187854562506  0.9993082807076306
  0.4963995164088502  0.7767670634568020  0.6649019040351760
  0.4247077345672423  0.7463608626852576  0.9858977332267642
  0.5193090699574014  0.6810987503721151  0.3231026118498974
  0.9858714523963599  0.9861397573598154  0.7798822582142506
  0.9491602314620451  0.0301618497409564  0.4452430132166185
  0.8613412868896262  0.0952973269049195  0.1120935456626526
  0.7871399181825751  0.1380878599778370  0.7642177483521664
  0.7068596510614853  0.1599891351912888  0.4504618869172035
  0.6217044746192997  0.2310282715684124  0.1179961185668930
  0.5691625415775476  0.2393344999195719  0.7626854734954378
  0.4935479124129358  0.2887719708334586  0.4274924443156323
  0.4114656394982603  0.3262662039656021  0.1265984593821656
  0.3514331904119459  0.3771462886835124  0.7680860948145636
  0.2918049343395523  0.4020335198816980  0.4347262323923715
  0.2121196379769330  0.4574885855433379  0.1013906815716865
  0.0582634833682860  0.0535567988136165  0.4323625460498448
  0.0068387497013873  0.0917129836851487  0.1009697677525381
  0.9373114702798446  0.1342273426152403  0.7809438829275379
  0.8348830041844266  0.1377248229792727  0.4245972959938058
  0.7742488470254756  0.2133696870117703  0.0981330342970850
  0.7066416607244648  0.2382663071366622  0.7657715180429321
  0.6325793093946643  0.2774920295925227  0.4411727104141150
  0.5590556433702574  0.3219753392620532  0.1104635303334618
  0.4970446631026846  0.3800000419188905  0.7673530075332664
  0.4278323139916083  0.4103027440815197  0.4375299218143240
  0.3526480377437409  0.4626533917491358  0.1202992792788677
  0.2868514988800825  0.5008965132186560  0.7596894618026866
  0.1536067552247502  0.0800660556068920  0.1195653025873966
  0.0614480904120640  0.1295012431524256  0.7786637332131789
  0.9927351372040150  0.1687391525793984  0.4322988454423395
  0.9120243313934040  0.2290158950856664  0.0934227112066139
  0.8525773571897375  0.2530160160135111  0.7622491263265871
  0.7868638205646974  0.2805110449791712  0.4267025815085077
  0.7026016899346388  0.3207109313781729  0.1013925369247843
  0.6449478010049177  0.3615326233605671  0.7866628931643547
  0.5751863361283682  0.3969916049587070  0.4409593054086898
  0.4859076224082983  0.4524960167812964  0.1029052488333306
  0.4176972558511167  0.5112202719559136  0.7733943605779388
  0.3546703331745604  0.5216041966688039  0.4348771146700585
  0.2221424736477999  0.1149155810727081  0.7867396179249653
  0.1265123236468213  0.1608568530958436  0.4561584105642353
  0.0606789672529047  0.2208075542671040  0.1016625988076285
  0.0093900531865430  0.2530140408097807  0.7689447836591228
  0.9252396555071272  0.3004860674023107  0.4485957214117349
  0.8504833492233459  0.3448148125440227  0.0941378268774855
  0.7850669454284045  0.3819699044293969  0.7815097570198404
  0.7280793128750247  0.3927417434559715  0.4485849488611819
  0.6343690388140573  0.4362563665924597  0.1157690925434878
  0.5564031449917621  0.4992481602684933  0.7520879094105837
  0.5086937792988806  0.5381263246413255  0.4572348541009532
  0.4359766424786926  0.5819472332687141  0.1261492538056928
  0.2867477931549800  0.1521613326253615  0.4329286316261403
  0.2169319499401325  0.2201749473833985  0.1064076904091777
  0.1416171256934220  0.2343423477460362  0.7658040671042770
  0.0715521244432082  0.2877744263204676  0.4491045754357046
  0.0030316357533522  0.3546972912579207  0.0900796828193009
  0.9379602728514769  0.3643297280917182  0.7666915159597920
  0.8521650660786690  0.4217378210584855  0.4297748718982177
  0.7854630388294765  0.4567297031343571  0.0975753034704638
  0.7021497460432826  0.5036595267117931  0.7739841554565814
  0.6548356575795609  0.5291807849782657  0.4555845883874028
  0.5823977193194736  0.5564534177958933  0.1141722693318812
  0.5012181041071457  0.6423886994584933  0.7733648664865811
  0.3428834454561596  0.2099622502329552  0.1009092865019312
  0.3096831271839093  0.2382385004801790  0.7844296326654430
  0.2123602569152254  0.2760293472022397  0.4559394585194738
  0.1303143050291098  0.3518567660612462  0.1028964403214374
  0.0540805687099208  0.3712806367240873  0.7649038250524782
  0.9981397311522642  0.4067583046096885  0.4686379625080122
  0.9306759366882602  0.4699872832020375  0.1060381092335163
  0.8468251344836304  0.4917276724166939  0.7749799524953502
  0.7955672595799683  0.5285428043777216  0.4452418625082331
  0.7019539190692043  0.5850225875036941  0.1212216687309393
  0.6286698834533979  0.6170544019909556  0.7767307306160447
  0.5738357735305115  0.6744766857729587  0.4372130481544971
  0.4278047939075265  0.2568634061756399  0.7528805658894910
  0.3495357277445592  0.2671079232592461  0.4394895908667920
  0.2920712150747420  0.3567301073021980  0.1164048673017248
  0.1973621985866529  0.3786070697907320  0.7745742795619037
  0.1418865483207910  0.4140861343567437  0.4493673558387954
  0.0607995487185775  0.4650951164763057  0.1013196052902714
  0.0029175495168090  0.4907376262080234  0.7758109437303133
  0.9479201934246220  0.5502567249255534  0.4463810425209616
  0.8298105465920145  0.5801750474897602  0.1252240204147697
  0.7719054122505611  0.6280123261365844  0.7921016445484028
  0.7154304454507638  0.6631019175995263  0.4561494236268828
  0.6330549648635468  0.7076574982844406  0.1009752396176964
  0.1174139833308416  0.5127144088294955  0.7758386522084706
  0.0904976681071759  0.5481650339167174  0.4405662993245656
  0.9890775792293951  0.5856411144957576  0.1141892826979358
  0.9194664892039981  0.6113013923920860  0.7825997482117799
  0.8424132256900805  0.6739813702332782  0.4596339044608655
  0.7837330762843848  0.6952170070873365  0.1329654588228877
  0.7147250021295832  0.7515767889808842  0.7742779003760987
  0.2073983630282186  0.5548101056452808  0.4492667850131653
  0.1522424821624782  0.5729242353510884  0.1085806625743544
  0.0628951914989244  0.6429819423007572  0.7656009555272263
  0.9864388209362858  0.6911865776176285  0.4715144862003271
  0.9146371988176227  0.7041214361487391  0.1213858414413522
  0.8637085524687933  0.7318683580070342  0.7806199741418922
  0.7651527380854333  0.8171072203996985  0.4501755502772582
  0.2963188755294439  0.5783207169568385  0.0938835370810196
  0.2281863773594495  0.6284883713783316  0.7752370703806974
  0.1426841397529088  0.6675278514810117  0.4449781107279449
  0.0656207739915970  0.7146320897259457  0.1164060841271564
  0.9998525158234486  0.7456617878461174  0.7809692650818221
  0.9261294943451475  0.8084683627790596  0.4527550358775585
  0.8820416552156090  0.8316152088320834  0.1112332278932442
  0.3677255600041462  0.6389829112579903  0.7749250409269095
  0.2756145559802690  0.6605359070606909  0.4319563401042927
  0.2500763132152954  0.7078293473938828  0.0963113062419509
  0.1408897538251779  0.7594443248632032  0.7866546090602995
  0.0676574614659344  0.7891459444808362  0.4428255519754742
  0.0164138441799651  0.8572330476438168  0.1108247449851802
  0.9360760430205204  0.8696434559445123  0.7664165976437900
  0.4220439084616032  0.6433320820091666  0.4251982886552668
  0.3807369168290577  0.7143607337063429  0.1217160499138430
  0.2820825616113609  0.7750446109294415  0.7787505208981926
  0.2014333281888341  0.7977503366793002  0.4398612841651897
  0.1510933919488124  0.8408098709079042  0.1160881444431112
  0.0831461029789651  0.8868720193451765  0.8013000110949875
  0.0084850503590914  0.9227983429993074  0.4670536163988430
  0.9401174694498522  0.9712235762527683  0.0986735348393850
  0.8591740160376773  0.0011804069647781  0.7804062154555425
  0.7802040349994073  0.0364539501696015  0.4444828374177234
  0.7228742591069519  0.0924048146490364  0.1025948609843752
  0.6385099904095597  0.1296677091480944  0.7928673488195130
  0.5714096833166309  0.1605703421277056  0.4378269259421117
  0.4850551013655391  0.1944590041129217  0.1208338985737285
  0.0789268252457447  0.9678802703666918  0.1190620386241292
  0.1385053648129713  0.0100196844999729  0.7815506236966243
  0.1966544907752521  0.0448614464151191  0.4570374444401679
  0.2996073300154407  0.0858811412329601  0.1336914127085151
  0.3694247269434285  0.1138687312005473  0.7937149929467608
  0.4286319050611382  0.1604444963361971  0.4375530523660629
  0.8720696976499482  0.9244724554245138  0.4411239939226661
  0.7956414744293738  0.9633981699486327  0.1182835864423808
  0.7243914473706852  0.0080676931165868  0.7682524498404817
  0.6393992787399725  0.0279382324485624  0.4583607368881033
  0.5639578780564634  0.0810788602390033  0.1051823254634385
  0.4941595372598329  0.1427124926157219  0.7909269148471267
  0.1407004269660845  0.9292976430641460  0.4602349415022573
  0.2268313378715874  0.9667971135670896  0.1405303692365507
  0.2982884754870838  0.0097255325220402  0.7887811887936138
  0.3254361558670666  0.0382850927052658  0.4534563421421467
  0.4214889452853967  0.0635189258522431  0.1160499324111655
  0.8122855801119684  0.8646188948342299  0.7879571484531525
  0.7216502267335159  0.9242050190119002  0.4418858131378229
  0.6613988657960590  0.9615919771905936  0.0788482341992705
  0.5694795556076500  0.0028909942539315  0.7886522302050736
  0.4928753641458385  0.0357183858319630  0.4500752117670217
  0.2307578675109312  0.8787926148654535  0.7721525804895819
  0.2756819392036505  0.9297595632418520  0.4426522845478544
  0.3647879401841578  0.9600512925369884  0.1431791006722634
  0.4464182380692705  0.9964944588056426  0.7917521045373945
  0.7326840141415545  0.8600825224841131  0.0915256278289363
  0.6681382685715676  0.8777477564047516  0.7767086905427689
  0.5805546497460696  0.8886851456692071  0.4545547433322525
  0.5037113516002023  0.9582249285534203  0.1158648313902049
  0.2897263015316796  0.8416213985254828  0.1192757524776908
  0.3592653571976570  0.8767296788357584  0.7753663532144870
  0.4182333719727964  0.9112095302576435  0.4527543919156045
  0.6442659268008626  0.7870608771897594  0.4311978865186887
  0.5747134037316499  0.8243726804910878  0.1171003770030410
  0.5275281455680911  0.8860219452495883  0.7751092294420161
  0.3640264948210614  0.8009169836193948  0.4372945904026153
  0.4454934021196095  0.8421927357039252  0.1003602097631315
  0.5742206860625103  0.7477106060624479  0.7688659073772612
  0.4885576018388704  0.7910472509360460  0.4337372965825210
  0.4341787907263850  0.7685756540128210  0.7698865268396702
  0.5026841259913581  0.6954005776540484  0.0971128355383684
  0.0150024813425347  0.0125260636290889  0.2314309753849813
  0.9162024913098676  0.0533417732862631  0.8771294254835951
  0.8720255825679146  0.0812402228862652  0.5394628152730405
  0.7915433011299200  0.1180217997381874  0.2181510792702639
  0.7228485500294823  0.1816560390333777  0.8995964237921754
  0.6305978152829681  0.1831728786895894  0.5409580125033671
  0.5752800745172806  0.2387263259435102  0.2169273667979184
  0.4904450037078192  0.2843217783471630  0.8719980427541856
  0.4161154189090439  0.3230114779427424  0.5362769751902547
  0.3555906463840799  0.3785583207216305  0.2344811709057808
  0.2827863325444753  0.4019508097674205  0.9045372241254768
  0.2071393066343390  0.4528719052706052  0.5534525472046283
  0.0575821921732427  0.0349161193390799  0.8759896979673556
  0.0009962516286777  0.1024380062223429  0.5592544283705578
  0.9468598388174314  0.1400955321591795  0.2038240213204858
  0.8583772828312846  0.1770915648519846  0.8873537008565791
  0.7711796145203138  0.1942238498715980  0.5601328631173317
  0.7075935780527871  0.2391219686137092  0.2079427888262160
  0.6392349967122115  0.2870582089298566  0.8910499835839545
  0.5608883683347869  0.3159045109852627  0.5443333748451806
  0.5069955985678902  0.3723455443823696  0.2396297562952725
  0.4339774727723267  0.4211069278332573  0.8705264370835124
  0.3463712582663163  0.4477786365308560  0.5550126374136468
  0.2940483822008062  0.5161502595476932  0.2369285374319858
  0.1473764290068971  0.1128931145113583  0.5482640361741744
  0.0821599843762613  0.1486733029964356  0.2038924329942162
  0.0074207809749325  0.1783767068309601  0.8958565214733269
  0.9059605494132015  0.1990880783183542  0.5396042419068863
  0.8533230923720438  0.2749738579192282  0.1976832775942441
  0.7973610186772078  0.2838827785446298  0.8743308841344017
  0.7128842762388032  0.3259237028409459  0.5493874427419527
  0.6407875368546243  0.3698893769267357  0.2159434690166933
  0.5612382674541436  0.4118474048533756  0.8780797213121048
  0.5131494584626992  0.4503800537681499  0.5578890909132070
  0.4348014440574062  0.4876976261462715  0.2348749998301756
  0.3389936700082501  0.5474616538999442  0.8884780389501898
  0.2175579769952520  0.1295684687558705  0.2157858092885405
  0.1324398957673978  0.1337020949649244  0.8948653902151307
  0.0737245580229882  0.2210699699028780  0.5697078844581895
  0.0153986031653446  0.2596343609770386  0.2099519609818827
  0.9471923690823445  0.2939110454060270  0.8829019810207868
  0.8237060949820574  0.3482722501204520  0.5575841957608105
  0.7824474043592886  0.3783112948756653  0.2172930882775859
  0.7251258331472670  0.4273824787059084  0.8812606841303250
  0.6527576316939872  0.4499313104340033  0.5565270140226986
  0.5641667863578377  0.4942609700638201  0.2332004587436387
  0.4911323690788265  0.5448752351938850  0.8712954571699640
  0.4109392931759217  0.5674941006764058  0.5516636888332371
  0.2776160675241854  0.1685784322312855  0.9086706610119961
  0.2244682482522222  0.2064452389023543  0.5686008635973536
  0.1493937208861666  0.2796048865099010  0.2242815934208977
  0.0909892792516516  0.2825003724501300  0.8897990988155513
  0.9783043121895432  0.3352562721271184  0.5659081683992184
  0.9396373770637467  0.3777741553382867  0.2090447440341805
  0.8705574691494746  0.4069504878333561  0.8914905667725606
  0.7913650633349576  0.4812547829345135  0.5607933561422058
  0.7093394317794619  0.5049023473675049  0.2216380974592482
  0.6334358301328677  0.5275067055812457  0.8958133176041159
  0.5843928879168132  0.5822743271633399  0.5474715341193388
  0.4897411430495993  0.6198144778036223  0.2104579534055944
  0.3573176172158767  0.1913306778492370  0.5451726904884282
  0.2874136879162421  0.2467403815006506  0.2317769355653141
  0.2323781963859091  0.2787700036990515  0.8776389343380728
  0.1474905818748553  0.3245435654019531  0.5548940895433176
  0.0764448536907736  0.3868023698736565  0.2339826103101856
  0.9902866704089845  0.4191686427521191  0.8730410772550528
  0.9179022922599316  0.4811536992738255  0.5554455600816084
  0.8460597457156993  0.4955306637243950  0.2271131285365229
  0.7941992613667992  0.5268356730759081  0.8988461098494014
  0.7235084033212402  0.5618882689552720  0.5460596466360670
  0.6384660580221535  0.6344715101368976  0.2331830278438787
  0.5680919070240904  0.6521367130490390  0.8941018166338708
  0.4138395173784275  0.2494644419209209  0.2207304022950751
  0.3766432816992022  0.2999191463465039  0.9013329052329837
  0.2833166925647390  0.3332640323834752  0.5489152845863501
  0.2171528127973303  0.3914050704137679  0.2257206396145293
  0.1508300834720018  0.4031092818060884  0.8733508356334667
  0.0620319017740982  0.4619054750918394  0.5629295998333461
  0.0094763195830225  0.5038644308533407  0.2075078971381714
  0.9256610060300474  0.5507657990228907  0.8842917509923254
  0.8613516773617178  0.6006437781771936  0.5472508399356073
  0.7547945690039768  0.6362177382617915  0.2522781014443893
  0.7126613303639928  0.6578943298064601  0.8965662259618128
  0.6472405885296979  0.7244193583613523  0.5570418842453506
  0.1618495365540582  0.5031444625090629  0.2170395878100067
  0.0682475315954250  0.5479331500067133  0.8795538426006644
  0.0185685852108506  0.5983982001483596  0.5660979161807873
  0.9033921403327199  0.6262263427245998  0.2193552115858779
  0.8626995112342897  0.6699260741282913  0.9180390090593917
  0.7896729148133943  0.7012794314493718  0.5552217905493393
  0.7120775097962451  0.7936554739023194  0.2219000631734858
  0.1992883925920239  0.5308440342419445  0.8848986896596998
  0.1383378931907870  0.5854051495397314  0.5629588616093173
  0.0506614350484611  0.6195263362145980  0.2260943340858290
  0.9965210204927786  0.6626899747980204  0.8921094413788566
  0.9242229635299850  0.7260609366320949  0.5579969563514240
  0.8357416132387741  0.7583604972063966  0.2436243546228738
  0.7767837451589870  0.7849534588254699  0.9080327582810455
  0.2896996973960526  0.5862376727096432  0.5782245969011015
  0.2078116339042708  0.6363465409383195  0.2122062525897732
  0.1294273364443015  0.6821675804493097  0.8758303336873183
  0.0583861074479302  0.7237787112975127  0.5592836806365327
  0.9840848424950082  0.7656825742455879  0.2098662230182455
  0.9242379298910066  0.7922102807480371  0.8975331352840854
  0.8411492344890092  0.8411242166626920  0.5636828863262267
  0.3626881356373772  0.6347007162230085  0.2111516177166521
  0.2979785204195480  0.6651998559808163  0.8927021413319878
  0.1964830988724557  0.6994973606671735  0.5567278518072385
  0.1383331498550362  0.7516040653833471  0.2024198704377511
  0.0603319227638437  0.7955373109879318  0.9005732687861894
  0.9897376264284858  0.8594214205046171  0.5675210743567760
  0.9296172902589177  0.8944486889812495  0.2287794620517545
  0.4347919101795412  0.6780217518115990  0.8870368729352549
  0.3578588000368299  0.7035677743010638  0.5525753768332180
  0.2982548318360259  0.7332442088400484  0.2225989117858163
  0.2125187754365356  0.8032776710248442  0.8857665800955985
  0.1443752213463512  0.8464663643068207  0.5560684125794495
  0.0647082354030388  0.8798799257772671  0.2255348765173508
  0.9888257713944313  0.9175352865590085  0.9037436180064802
  0.9180998315882221  0.9635241754140722  0.5672186930108367
  0.8739264190208615  0.0225905152435217  0.1825522988128370
  0.7699185939141557  0.0513128951155366  0.8838424417117068
  0.7323010610438629  0.0889399856016695  0.5468009872271793
  0.6469034250874088  0.1239329922139873  0.2261253724178687
  0.5790193854977872  0.1663877751725522  0.8942631141583348
  0.5043306205506326  0.1896677765823327  0.5340756578306838
  0.0747942318838426  0.9876283689731693  0.5587741889906042
  0.1379940692149049  0.0042121346889914  0.2375768798639655
  0.2082838946134231  0.0422314854269814  0.8999957399788485
  0.2927517977226515  0.0826382068590377  0.5780649586428765
  0.3834806831308910  0.1057422089465518  0.2246384416301908
  0.4244947173875744  0.1892257113207592  0.8761225094590372
  0.8610303631264102  0.9202613199374383  0.8925129605267657
  0.7723940016250523  0.9652287141749909  0.5425460416945000
  0.7266418389603828  0.0089147030953427  0.2254459074225466
  0.6442338271239976  0.0485161743961555  0.9057594870041541
  0.5958966557629495  0.0716230180307988  0.5642995659370413
  0.5017245374317554  0.1159584953193757  0.2348127886677176
  0.1559238185704857  0.9190042514880403  0.8946494170604637
  0.2124805716602509  0.9777071342700054  0.5608748771060661
  0.2839955847235629  0.9880453957079993  0.2481103914718048
  0.3611074294228231  0.0423843328067690  0.8997209516326592
  0.4603331439340650  0.0661848182019895  0.5590181966801069
  0.7988162974195916  0.8892169318221121  0.2030745161794272
  0.7146101087363022  0.9186231926784316  0.8778860051489801
  0.6465021963028263  0.9533643448380218  0.5457704207716247
  0.5936861777633098  0.0004754700321996  0.2291508229534855
  0.5011522190617868  0.0577006906485380  0.8959457301292204
  0.2223808485346055  0.8727806076643461  0.2483995308406577
  0.3099099864456676  0.9198409959346137  0.8893074266202632
  0.3517707286879741  0.9303987326059087  0.5584088578732533