Li 
 1.0000000000000000
   -10.5278949999999991   18.2348490367503473   -0.0000000000000021
   -18.0478199999999980  -10.4199137352859115    0.0000000000000046
    -0.0000000000000002   -0.0000000000000000   22.0820499999999988
 Li 
 504
Cartesian
  0.6552709700000000  0.2023124400000000 -0.2061745900000000
 -11.0060081499999995 16.6129469500000013 14.7377072099999999
 -10.9839097900000002 15.1719946500000002  6.8738044399999998
 -11.0891595100000000 13.6334678500000006 -0.3063755200000000
 -10.4592699099999997 11.4138833099999992 14.5423926100000003
 -10.6072482000000008  9.9493254199999992  7.4534096200000004
 -10.4605322899999997  7.5176767499999997 -0.1105695200000000
 -10.1433212000000008  6.2328751100000002 14.5694429700000008
 -10.1968329099999995  4.3259933999999998  7.7662086300000004
 -10.3118284199999994  2.5557809499999999  0.0545517000000000
 -10.0460410800000002  0.8780884900000000 14.6039430400000008
 -10.6423048199999997 -0.8537595600000000  7.5613207999999998
 -2.0419038500000002  0.5388795700000000 14.8073979500000004
 -1.8824229299999999 -1.0518273000000000  7.0465878999999996
 -12.0482616399999998 15.9205623900000006 -0.0889344000000000
 -12.2287376299999995 13.9224381899999994 14.3716954300000008
 -12.2270690900000005 12.3216500799999995  6.8609850100000003
 -12.4889854699999994 10.1644778599999999 -0.1993583100000000
 -12.0152336599999998  8.8853129600000003 14.3316519600000003
 -11.8265194099999995  6.9783665499999996  7.5130091099999996
 -11.8662481000000000  5.1670452100000004 -0.1724041800000000
 -11.4548219099999997  3.6063358800000000 14.7099682999999999
 -11.9880191499999995  1.8290442899999999  7.3420984200000001
 -12.0975308300000002  0.3304276200000000 -0.1143156400000000
 -3.4500065200000001  1.5425349799999999  7.3614970099999999
 -3.1113404500000001 -0.1820129100000000  0.0562534200000000
 -3.4199257500000000 -1.8979888100000000 14.4411741300000003
 -13.9912970600000008 14.6852582799999993  7.1808504800000001
 -13.7324923499999993 13.1827051700000002 -0.6367814600000000
 -13.8477532100000005 10.9726617900000001 15.1711956699999995
 -13.1554210299999994  9.7623663300000008  7.3589554000000001
 -13.4052316600000001  7.6761744299999997 -0.3905620000000000
 -12.9253458000000006  6.2034918000000001 14.7959857600000007
 -13.5274616900000009  4.7380144900000003  7.5707073300000003
 -13.4176503199999999  2.4675744300000000 -0.1637324900000000
 -13.4631533500000007  0.8263574500000000 14.8969067699999993
 -4.3446185699999997  2.6866193300000001  0.3203310700000000
 -4.1130215000000003  1.1370525800000000 14.7877393700000006
 -4.6768473400000001 -0.8993209900000000  7.0669678500000002
 -4.4260476700000000 -2.6891815100000001 -0.3341106000000000
 -14.9680166000000003 13.7104907800000007 14.4291530300000002
 -15.1203602099999994 12.2714297699999992  6.9357591699999999
 -15.1550138499999996 10.1084090799999995 -0.4753566100000000
 -15.1514539300000006  8.3972542800000003 14.6962914599999994
 -14.6467428099999992  7.2647075299999999  7.4791290300000002
 -15.1076362300000007  5.0540138800000003  0.1952751600000000
 -14.7755766299999998  3.1548684699999998 14.3840605000000004
 -14.9617074900000002  1.9168670100000000  7.1515635499999997
 -5.8348301500000002  3.4286194200000000 15.2566171900000001
 -5.7861703499999999  1.8488016800000000  7.5868720300000003
 -6.0225975099999998  0.0695422000000000 -0.3441070400000000
 -6.0683376100000004 -1.5001191100000000 14.7078391199999992
 -16.8526230800000008 15.3313526800000002  7.4013784899999999
 -16.5793037400000003 12.9692785500000003  0.0175417100000000
 -16.8244195800000007 11.0608889599999998 14.8897780199999996
 -16.1602915600000010  9.9867282799999995  7.3511767700000004
 -16.4807395700000008  7.3055113399999998  0.4732601600000000
 -16.4051964699999999  6.2377338499999997 14.6945999900000004
 -16.2048734699999990  4.6394099400000002  7.7188196600000003
 -16.1768767800000006  2.6676196600000002  0.0821285300000000
 -7.0791495400000004  4.4847463300000001  7.5485017200000000
 -7.7356005899999998  2.3951007999999998 -0.0469043500000000
 -6.9750502299999999  0.9342468500000000 15.1866177800000006
 -7.5693080699999999 -0.3346122900000000  7.7150774699999998
 -7.4363324500000001 -2.9178814300000000 -0.2786954700000000
 -18.1399835100000004 13.6071865499999998 14.5804740499999994
 -17.9810774199999983 12.2772777499999997  7.3850000500000004
 -17.7348158399999996 10.6613568500000007 -0.1044341700000000
 -18.0027587199999992  8.4065508100000006 14.6266235299999998
 -17.5326143700000010  6.7739976000000004  7.6431049399999997
 -18.5360161000000012  5.1797231500000001  0.1568485200000000
 -18.1310361700000016  3.3058384300000001 14.5599465699999993
 -8.6986689599999991  4.9125232700000003  0.4087545900000000
 -8.3573933999999994  3.0301258600000001 14.3374152499999994
 -8.5903167899999993  1.5509025900000000  7.4728577999999999
 -8.5771093000000000 -0.1127441000000000 -0.0746968900000000
 -8.8564550999999998 -2.0870476400000002 14.8881426700000006
 -8.8745384099999995 -3.5458782400000000  7.4849531100000002
 -19.5686835099999996 12.6889683899999994 -0.2541662900000000
 -19.9637240100000000 11.4073059200000007 14.5400526899999996
 -18.8892145599999992  9.3154851700000005  7.5346858100000000
 -19.2425187700000002  7.8412404999999996  0.5407187600000000
 -19.3299497900000006  6.0585056300000000 14.4307361099999998
 -19.5248902599999994  4.5360339099999996  7.1656054200000003
 -10.6901220899999991 -2.4463985699999999 -0.0744222900000000
 -10.5740866300000000 -4.3764223099999997 14.7890893499999994
 -21.1491596299999998 11.8125793899999998  7.4719488500000004
 -20.6138027299999997 10.4038794299999999  0.2130261100000000
 -21.2600418399999995  8.5253194499999996 14.9421640500000006
 -21.0888889400000004  6.8477745900000002  7.6369524999999996
 -21.0232699799999985  5.1358678099999997  0.4429606000000000
 -11.9024349699999998 -1.6979948199999999 14.8485021499999998
 -11.8255155700000003 -3.5586581800000001  6.7666036399999996
 -12.0323002900000002 -5.1682040899999997 -0.2410429600000000
 -22.8669659199999984 10.7407678900000008 14.8398944999999998
 -22.5598484299999988  9.4982689100000002  7.8867155300000000
 -22.1514770500000004  7.7691233899999999  0.0683568600000000
 -22.6534556500000015  5.6390985799999997 14.8914951900000005
 -13.9044785599999994 -1.2067424400000000  7.3953498000000000
 -13.6107347500000007 -2.2090722700000001 -0.6291607500000000
 -13.1411341200000003 -4.4124118499999998 14.5786713500000005
 -13.4239602799999993 -6.3655956199999997  7.3321893500000002
 -24.1906317599999987 10.7417773699999994  0.4802590800000000
 -24.2450069699999986  8.0814633300000001 14.8590291299999997
 -24.5702099499999989  7.3137426600000000  7.0184747700000001
 -15.2724565600000002 -0.1676813000000000  0.3574235800000000
 -15.1208784999999999 -1.9474753100000000 14.4798946599999994
 -14.9777574999999992 -3.8787636499999998  7.2705990600000003
 -14.9167884900000001 -5.0748289000000000  0.1306544300000000
 -15.2068046399999997 -7.1038337000000000 15.2015337299999995
 -25.9747479900000009  9.7336644099999994  7.5100876200000002
 -24.8525121999999996  8.1053309900000006  0.2011679600000000
 -16.1747540900000004  1.1912189600000000 14.3294680099999994
 -16.9682075300000008 -0.7848507200000000  7.2437794000000002
 -16.9818604499999992 -2.5943851000000002 -0.3839944600000000
 -16.5588572099999993 -4.4221451399999996 14.7765661900000005
 -16.8265154999999993 -6.6142088899999996  7.4957361799999997
 -15.9787830900000003 -7.8065800599999999  0.2526143300000000
 -27.4450969100000002  8.9076808399999994 14.9363021000000007
 -27.3906998600000016  7.4136513300000004  7.3209354299999996
 -9.1024524400000004 15.7973577400000007 -0.3936007800000000
 -9.1729467200000006 14.1711904900000008 14.6121546099999993
 -9.3531365399999995 12.5183583299999999  7.4917959900000000
 -9.5538454599999998 10.3121389899999993  0.0701112000000000
 -8.8467219999999998  8.6424307599999999 14.4471134899999996
 -8.5001930300000001  7.2571807799999997  7.3298358900000000
 -18.5712172600000009 -9.2258853700000003  7.5811464500000003
 -1.2349430800000001  2.2323466800000000  0.2678732300000000
 -3.1486290299999999  3.5117248000000001 14.7714413400000009
 -3.9161241800000002  4.5950810000000004  7.0701192099999997
 -5.6916031000000000  5.1515203899999999  0.0644071200000000
 -7.0104287400000000  6.0039867999999998 14.6396437000000006
 -25.9303683099999986  6.1432387999999998 14.7256765200000004
 -25.9342254499999996  4.5599782500000003  6.9929444500000004
 -7.5451361099999996 13.0479486700000002 -0.0531246600000000
 -7.5796843400000000 11.7145281099999998 14.6937316599999992
 -7.2411370599999998 10.3763887700000002  7.6347314199999996
 -7.6869384600000004  7.5670675699999999  0.1760668800000000
 -18.3792334299999993 -7.0248429000000003 14.9488729500000002
 -19.1150026500000010 -6.3998955100000003  7.9234711799999999
 -2.8407687300000002  4.5978346999999999  0.5789283200000001
 -4.1937581699999997  6.2776728700000000 14.8724753799999991
 -5.7400242400000003  7.2272593799999996  7.8285338500000003
 -24.4974978999999990  5.1178078200000003  0.0432564100000000
 -23.8655692100000003  3.4302650899999998 14.5255310000000009
 -24.0054894400000016  1.9867655099999999  7.4988229000000004
 -6.3428207099999998 10.0265870300000000  0.0621296300000000
 -5.8171203499999997  8.4458414400000006 14.8247890499999997
 -18.3834150899999997 -5.0206476000000002 -0.1029270100000000
 -19.5577168300000004 -4.2444734000000004 14.6588028700000006
 -20.4011137500000004 -3.1978807100000002  7.3350032399999998
 -4.6978366400000002  7.1958011099999997  0.4477748500000000
 -22.9328816499999988  4.7431913799999998  6.9646264799999997
 -22.8221314900000003  2.7982053599999999  0.2054742300000000
 -22.0578539300000003  1.1781880300000001 14.8966744099999993
 -22.2237611500000014 -0.3026216000000000  7.3742493700000002
 -17.7308637000000004 -3.6522309800000001  7.5913832699999997
 -20.2050830099999992 -2.5087458499999999  0.1281005800000000
 -20.9004149400000010 -1.5889295400000001 14.7549065299999995
 -20.5894260399999993  3.6345878800000002 15.2022111500000001
 -20.9148492499999996  1.8648881399999999  6.9286477599999996
 -21.4628523700000002  0.2868417300000000  0.0731027100000000
 -18.0669926600000004 -1.8849841300000001 14.4938156599999992
 -19.2906381799999984 -0.4859763100000000  7.2825322300000002
 -19.6702204700000003  2.4050044200000000 -0.0152745800000000
 -19.2449941299999985  0.9579244500000000 14.6823970900000003
 -17.9414649399999995 -0.0325343800000000 -0.3114069600000000
 -17.7595790099999995  2.3725322700000002  7.1347680300000000
  0.3988910300000000 -0.1132094000000000 17.2213990199999998
 -10.5370148900000000 16.9935096600000008  9.8318784800000003
 -10.7880196300000009 14.7134384100000002  2.4752552799999998
 -10.7791112499999997 12.9145139899999997 16.8754945300000010
 -10.3291993000000009 11.2224060399999992  9.9471219099999999
 -10.7147960900000001  8.9293925800000000  2.6055961900000000
 -10.3115494499999993  7.8847481799999999 16.8416587600000014
 -10.4077251499999992  5.9907926500000004  9.4399095299999995
 -10.2202607699999994  4.1033481199999997  2.7955535100000000
 -10.5065200599999997  2.4784993800000001 16.9609155499999993
 -10.3279203099999997  1.1318643300000000  9.5996463999999992
 -10.4898449199999995 -0.8990220200000000  2.2389141000000001
 -1.5799753000000001  0.5043685999999999  9.5474513600000002
 -1.7272170600000001 -0.8309378100000000  2.2296194599999999
 -12.2904276600000006 15.6930958300000007 17.2448418699999984
 -11.2751934200000008 13.7888847699999992  9.3759787200000009
 -12.0020682700000005 11.8950171099999995  2.1669785699999999
 -11.7396366299999997 10.4027896399999999 16.9098049500000016
 -11.6678547500000001  8.6435452000000002  9.7419978500000006
 -11.6966320800000005  6.8393400000000000  2.4392611999999998
 -12.0910063799999996  5.1039667399999997 16.9447274800000010
 -11.9092437499999999  3.5261384599999999  9.6615576099999991
 -12.0625266500000006  1.6096752999999999  2.6564546999999998
 -12.0600325700000006  0.0113953200000000 16.7755006800000004
 -3.0621735499999998  1.9667146000000000  2.6402469900000001
 -2.9841341699999999 -0.2288951300000000 17.1944914900000008
 -2.9688901400000001 -1.8907210900000000  9.5460447199999994
 -13.7349340499999997 14.2443001299999992  2.0629649799999998
 -13.5422324100000004 12.9102143399999996 16.8320233200000011
 -13.3466325300000008 11.4254420900000007  9.4224677400000001
 -13.1850499800000005  9.4700555099999999  2.2389550699999998
 -13.3148184399999998  7.9933870400000000 17.3711293399999995
 -13.2203343800000006  6.3518177299999996  9.7372854300000000
 -13.2821510899999993  4.1454826799999998  2.2723588499999998
 -13.6238843000000003  2.2897752699999998 17.0781329399999997
 -13.1477506799999997  1.0322892500000000  9.6029781900000000
 -4.4126683599999996  2.8533240300000000 17.3728235799999986
 -4.2350239900000002  0.6308185900000000 10.0729128299999999
 -4.6239167900000000 -1.1943238599999999  2.2449185900000002
 -15.1931043599999995 15.7696907599999996 16.9798771600000009
 -15.1639444000000001 13.7405665399999997  9.9059131499999999
 -15.1769550700000000 11.9154948800000007  2.0787561999999999
 -15.1588264499999994 10.3354837800000006 17.2573375300000009
 -14.7532748500000004  9.1840812700000001  9.9056752699999997
 -14.5520470100000008  7.0218699500000001  2.5564188900000002
 -14.8680948199999996  4.9438045900000001 16.6076428199999988
 -15.0674817399999998  3.6687243899999999 10.0966829100000002
 -15.0927952300000001  1.8861282900000000  2.7856341300000000
 -5.7650309999999996  3.6432947599999999  9.5599516900000001
 -6.2575146100000003  1.6615173999999999  2.3496999399999998
 -5.7202987399999996  0.1405398600000000 16.9105236999999988
 -5.9469943000000001 -1.6938425100000001  9.9171496900000005
 -16.9613246099999984 14.5942152800000002  1.9891440600000001
 -16.4501046200000012 13.3072796400000009 16.9301203899999990
 -16.5829526200000004 11.1446296199999999  9.4903102100000005
 -16.5122478699999995  9.5637158299999996  2.1546627300000001
 -16.4821152799999986  7.5555057999999997 17.0911568199999984
 -16.4446006000000011  6.4268112300000002 10.0602416600000009
 -16.1741931600000015  4.8217378799999997  2.5211577599999999
 -16.8704871899999986  2.4460016300000000 17.0774816499999993
 -7.3992018100000001  4.0646393300000003  2.2282839100000000
 -7.5599970200000000  3.1646004500000000 17.3218143699999985
 -7.2174344599999998  0.9961552400000000 10.0680779200000003
 -7.7221829000000000 -1.2900554700000000  2.2721643399999998
 -7.2701606500000002 -2.8825612000000000 16.8906445100000013
 -17.8494109499999993 13.9625408699999998 10.3484869199999991
 -18.2803044300000010 12.0735082600000005  2.3415388300000002
 -17.7898986199999989 10.3179685600000006 17.1131460599999983
 -17.9146939699999983  8.9996784499999993  9.8318530699999993
 -17.9484795099999985  6.7041388499999996  2.6768229500000000
 -17.7550573000000007  5.0340467799999997 17.1518068300000017
 -18.2141165899999997  3.4358198199999999  9.6545603900000003
 -9.1397084700000004  5.1244613000000001 16.6251463000000008
 -8.5005911600000008  3.5904897099999999  9.7048311199999997
 -9.5130958499999991  1.6087775700000000  2.5704581000000002
 -8.9108407500000002 -0.3461831100000000 17.1041879700000017
 -8.9671187000000003 -1.7274620100000000  9.9229524199999997
 -9.0340442099999994 -3.7375804000000001  2.2373445900000002
 -19.4153550000000017 13.1746063800000002 17.1314960499999991
 -19.9105385900000016 11.5515540199999993  9.8570084999999992
 -19.2070531299999985  9.0860961000000007  2.7652030800000000
 -19.4607925500000007  7.5317444000000000 17.4912281199999988
 -19.4995206600000017  6.1363013899999999 10.0727143800000007
 -19.4364113500000002  4.1699316299999998  2.2297402900000001
 -10.4894994500000003 -3.2014136500000001 17.1321079099999984
 -10.8459338100000000 -4.0616210500000003  9.7286070500000008
 -20.9824503200000017 11.9333504500000007  2.5215334500000002
 -20.7127041500000004 10.3966248500000003 17.2814067700000003
 -21.0327324400000002  8.3384502600000001 10.1496588600000006
 -20.7982109400000006  7.0471530900000001  2.9361499100000001
 -21.0888723800000015  5.2015372099999997 17.0976433099999987
 -12.1965811100000003 -1.9991956000000000  9.9207316100000007
 -11.9428263399999999 -3.1937024300000001  2.3976836200000000
 -12.2665763299999995 -5.5529320499999999 16.9060385800000006
 -22.8595352699999985 10.7854584700000000 10.4120064600000006
 -22.3370613300000009  9.3413866199999998  2.6804482200000002
 -22.3016613399999990  8.1235899099999997 17.2376892999999995
 -22.8024517200000005  5.4382579199999999  9.9407990099999992
 -13.5570422100000005 -0.6227220200000000  2.0731409599999999
 -13.7451672200000008 -2.3878504700000001 17.1188237500000007
 -13.5495861499999997 -4.3537588800000000  9.8260288899999999
 -13.5883999400000004 -6.2498198199999999  2.5704849699999999
 -23.9839120299999990 10.4624281799999999 17.2454023599999999
 -24.3412855599999993  8.4636609200000006  9.9977593400000000
 -24.2948835299999999  7.4185376900000000  2.4562577000000001
 -15.4036246499999994  0.0472732600000000 17.1119334999999992
 -14.8228742600000007 -1.8569373499999999  9.5384814999999996
 -15.4075538200000004 -2.8154169200000001  2.1267510800000000
 -15.1895870100000003 -5.3442409599999996 17.3709464099999984
 -14.9546546100000004 -6.9891090699999996  9.7784959800000006
 -26.1718859700000017  9.6018585999999999  2.4472375600000000
 -25.5500788499999985  8.0075955400000005 16.9240496299999990
 -16.0539755699999986  0.9924421600000000  9.3892498700000004
 -16.9010122199999984 -0.5008970200000000  2.6877399000000000
 -16.9576012200000008 -2.9321650600000000 17.1964079400000003
 -16.5183234100000007 -4.6393833600000001  9.7130388700000001
 -16.7654805700000011 -6.0060011299999996  2.5634642099999998
 -16.8814600100000014 -7.7249733000000003 17.6943469100000002
 -27.2717231099999999  8.7740935199999992 10.3135013099999995
 -27.4259262899999996  7.0228342499999998  2.1789139300000002
 -9.0665975999999997 15.6546087400000005 17.2329690699999993
 -8.8718204899999993 13.8470557799999998  9.8150922400000002
 -9.2780497600000000 12.2186527900000002  2.2655048500000001
 -9.0623856099999998 10.2920069400000003 17.5081364400000012
 -8.9136857799999998  8.7464402000000003  9.6681160700000000
 -8.6161702800000004  6.8186605000000000  2.6682601899999998
 -18.2990622300000005 -8.6460101799999993  2.6291338899999999
 -1.6390034000000000  2.4212201699999998 17.2582399500000001
 -2.8800091399999999  3.1185125500000002 10.0923236999999997
 -4.7042018900000002  4.5684203500000002  2.9521804600000001
 -5.9443470999999999  5.5499017700000000 17.5268541599999992
 -7.4082650799999996  6.1442202699999999  9.6620683799999991
 -25.8657706800000007  6.2691360500000002  9.7409220899999998
 -25.7636666599999984  4.4698763499999998  2.6119440699999998
 -7.7719213700000003 13.1251040200000002 16.9645890100000010
 -7.2357526600000002 11.3682353500000008 10.1215447100000002
 -7.4005859999999997  9.4388520400000004  2.3226413699999999
 -7.7781091000000000  7.5238727000000001 17.4652876799999994
 -18.2530759099999997 -7.1175502300000000 10.1629309899999996
 -19.8366367900000000 -5.9377073200000003  3.1031986400000000
 -3.3158744100000002  5.3379061099999996 17.4179056500000016
 -4.1171201399999999  5.5353518099999999 10.0132456199999993
 -5.5837694999999998  7.0239255600000003  2.5626204100000001
 -24.1561434800000008  5.8026506299999996 17.3997091499999996
 -24.2773436400000016  3.5290463700000001  9.7577446200000004
 -24.3177767299999985  2.0408030199999998  1.7411306499999999
 -24.0954171099999996 -0.0656639200000000 17.4150579800000003
 -5.8335790799999998  8.6153253599999999  9.9385833300000002
 -18.2896855299999999 -4.9491083600000003 17.0507118899999988
 -19.6824837499999994 -4.6609958999999996  9.7746698799999994
 -21.1672820500000007 -3.3517986299999998  3.1616880599999999
 -22.6843969600000008 -2.2430171200000002 17.4835095600000017
 -23.2362349200000011  4.3983967000000002  2.0210734900000000
 -22.8755230500000017  3.0373445600000002 17.1513201399999993
 -22.1508479399999985  1.3263038400000000 10.0375005700000006
 -22.5968912499999988 -0.7995206400000000  2.5585330000000002
 -18.2396395899999995 -3.4865070000000000  2.6338531299999999
 -19.6053673900000014 -2.5842980700000000 17.1216785800000011
 -20.8484626099999986 -1.8683023000000001  9.9977451199999994
 -20.9874970699999999  3.5469854700000001  9.5217332900000002
 -20.9286521199999989  1.8899199400000000  2.5858163799999998
 -21.5445255099999997  0.3871238600000000 17.1160007599999986
 -18.2872382699999996 -1.7075176999999999  9.6563610099999995
 -19.8898506600000005 -0.6520707200000000  2.2161591700000001
 -19.5398815200000016  2.6797475099999999 16.9781354100000001
 -19.4201615300000014  0.6661300000000000  9.5778086699999996
 -18.4421037800000001 -0.0913073100000000 17.0006727799999986
 -17.8426701500000000  1.9203551200000000  2.1444504900000001
 -0.3840126900000000  0.1430474800000000  5.1104703699999998
 -10.6083863500000000 16.1509974400000011 19.3688158299999991
 -10.6468026899999995 15.0547387399999995 11.9124448600000008
 -10.4633209600000008 13.2038956299999999  4.8172230400000000
 -10.8885691300000005 11.2881939300000003 19.8649332100000002
 -9.9447387299999992  9.5902103699999994 11.9454618799999999
 -10.3649779800000008  8.0026375900000009  4.7902009600000000
 -10.2947417800000007  5.9805821999999997 19.2555043800000014
 -10.2104724499999993  4.2220501099999996 11.8420949800000006
 -10.5757734200000009  2.5395967100000001  5.1778249399999998
 -10.2314806800000007  0.9682733200000000 19.9740362100000013
 -10.3540914999999991 -0.9417322000000000 12.2213668200000001
 -1.2363791099999999  0.6861796300000000 19.3436483099999990
 -1.8592711300000000 -1.0492286900000001 12.3494842499999997
 -12.4968599099999995 15.8060628600000008  4.5008522299999996
 -12.2330225899999991 13.8071013399999991 19.5945887899999995
 -11.6242150899999999 12.0385480900000008 12.3688818900000008
 -11.7651011400000005 10.4112317900000004  4.5918030600000002
 -11.9105738100000007  8.6652318899999994 19.6762102900000002
 -11.6063615999999996  6.9360169699999998 12.0199967999999995
 -12.0576217900000007  5.3651797500000002  5.2915162599999999
 -12.1689313000000006  3.5256158399999999 19.2230083100000009
 -11.7279884699999997  1.6502128400000000 12.2558168100000007
 -12.4110974699999996 -0.0163133200000000  5.2318678099999998
 -3.5890381800000002  1.5110504199999999 12.1067938599999998
 -3.5482007000000002 -0.0509880800000000  4.5023628999999996
 -13.8253309000000009 16.5114959600000013 19.7823485000000012
 -13.1309633399999992 14.4455732500000007 11.9155678500000004
 -13.9463746099999994 12.6950138900000002  4.3652520199999998
 -13.5179983700000008 11.5817237399999993 19.3070182999999993
 -13.3873831299999999  9.6032402900000005 12.1316009800000000
 -13.4218408000000000  7.8304486000000004  4.7684744800000001
 -13.3416053800000007  5.9426806499999998 19.3898003099999983
 -13.5307617600000007  4.6642815999999998 12.3193348000000000
 -13.3794229199999997  2.8467715000000000  5.1865214899999996
 -13.4493791500000004  0.4769951900000000 19.6194164800000017
 -4.6288559400000002  2.6170445999999998  4.7649930300000003
 -3.8073446600000000  1.0218572100000001 19.7604622899999995
 -4.7659954300000003 -0.9591738300000000 12.5803179899999993
 -4.8479490900000002 -2.4245764400000001  4.6361696999999999
 -15.2763954500000008 14.2093821200000008 19.4962856900000006
 -14.9574461599999999 11.3911894900000004 12.3126020900000004
 -15.0652182700000008 10.3258392400000005  4.7982768399999998
 -15.3473706799999992  8.7692715400000001 19.4600424899999993
 -14.9924431100000000  7.2146914300000002 12.2892573499999997
 -14.8598217100000003  5.1373395100000003  5.1495441900000003
 -15.0044001799999993  3.2781716599999999 19.2399898500000006
 -14.5683571100000009  1.5801764000000000 12.1818651599999992
 -5.9651860100000000  3.3057143600000001 20.0653109699999987
 -6.0890646600000000  1.9420030399999999 12.5558727000000001
 -6.6190600699999997 -0.1892868500000000  4.9525973600000004
 -6.0564414500000003 -1.2844537400000000 19.6485881900000017
 -16.3501299300000014 14.3458900099999997 12.4964124699999992
 -16.7104035999999994 13.1977716100000002  4.6161364899999997
 -16.5097067799999984 11.6340950500000009 19.6859392699999987
 -17.0170079899999998  9.4157891399999993 12.3834669300000009
 -16.5802377400000012  7.6736585499999999  4.8942235500000004
 -16.1890919800000006  6.0540323699999998 19.7813944699999986
 -16.6612092099999991  4.5890678300000003 12.0892937899999993
 -16.3422434599999988  2.4719424200000000  4.6473430499999999
 -7.2149039899999998  4.5219836500000001 12.0385306100000005
 -7.4789871200000002  2.6699317200000001  5.1181098799999996
 -7.4776441000000000  1.3326219399999999 19.3800668300000005
 -7.4100692099999996 -0.6922474600000000 12.2531990299999993
 -7.7857429399999996 -2.6364869600000000  5.1668156999999999
 -17.9907143000000005 13.6900268399999998 19.2785367200000017
 -18.3473543100000001 11.7242296899999996 12.2653766300000004
 -17.8504763900000007 10.2643849700000001  5.0151234599999999
 -17.8694818300000016  8.9925213700000004 19.8483647400000009
 -17.7578788400000001  7.3382392200000002 12.0581164199999993
 -18.1725312300000006  5.0311937799999997  5.1491592800000001
 -17.7504579599999985  3.5638618700000002 19.7436010199999998
 -8.8591483300000000  4.9469031599999997  4.8741797800000004
 -9.3781476900000005  3.7429017500000001 19.9032782799999985
 -8.9974176600000000  1.6936546500000000 12.1211747600000006
 -9.3501702699999996 -0.1186583100000000  4.9843744499999998
 -8.8631670400000004 -1.4500001400000000 19.2853768199999998
 -8.9894522200000004 -3.6818728400000000 12.4306395700000003
 -19.7213152500000000 13.1574243899999992  4.5821997600000000
 -19.6853838799999998 11.1403565899999997 19.5269746600000005
 -19.9085308099999985  9.4479614499999993 12.0844204099999999
 -19.4287411900000002  7.1342310700000002  5.5708176500000004
 -19.3763821000000007  6.1400696100000003 19.7980202299999988
 -19.8882711400000005  4.2539471999999998 12.3006267400000002
 -10.7845956199999993 -2.2914200299999998  4.7926790300000004
 -10.6075017099999993 -4.4649327200000002 19.4223519300000014
 -21.5231661199999991 12.3381867599999993 12.5006024900000003
 -20.8128379099999989  9.9479948300000007  4.8438127499999997
 -21.1731150700000015  8.7506234500000009 20.2721832999999982
 -20.9701584799999985  7.0922952099999996 12.2604353400000008
 -21.8204283900000000  4.7148043199999998  4.9000082899999997
 -11.6786648500000005 -1.8973552899999999 19.5403771100000014
 -12.0216935800000009 -3.5773005599999999 12.4312857300000008
 -11.7144580699999992 -5.5316073599999998  4.9926263899999999
 -22.4513780499999989 11.2662379999999995 19.6996052900000009
 -22.8339394099999993  9.2875738900000009 12.3217166900000006
 -22.4853537000000010  7.3375711900000002  5.3797251800000003
 -22.3445964400000001  5.9853870000000002 20.0512247700000010
 -13.6302399899999998 -0.8259157300000000 12.7683844600000000
 -13.6724868900000001 -2.8412622900000000  4.6859490800000003
 -13.6742351099999997 -4.7480393999999997 19.3401292200000015
 -13.6773107100000004 -6.4770498800000000 12.3501302000000006
 -24.1792431699999995  9.9662921699999991  4.6342764299999999
 -24.0279484299999986  8.5985763399999993 19.8193715700000013
 -24.0359892799999990  6.5737875299999997 12.4472736800000003
 -15.2733068900000006  0.0000366900000000  4.6626605799999998
 -15.1424938400000002 -1.4977317800000001 19.7126933199999996
 -14.6929558900000004 -3.7058625100000002 12.2936922600000003
 -15.0211717599999997 -5.3091654200000002  4.4698456999999996
 -14.9928823399999995 -7.1892866499999997 19.8865039500000016
 -25.9305369100000007  9.0926191400000000 12.5320287399999994
 -25.9297621599999992  7.6313527700000003  5.0519195200000002
 -16.8142581100000008  0.8634366800000000 19.5875925799999990
 -16.4653644200000002 -0.8056143200000000 12.2019970999999998
 -16.3734550500000005 -2.2017095699999998  4.9154403000000002
 -16.7347861699999996 -4.4948362499999996 19.5595419100000001
 -16.7968397500000002 -6.1874461299999997 12.2791304900000000
 -16.5611560299999994 -7.9883280200000000  4.9802724200000004
 -26.9697655900000015  8.4704501299999997 19.9565117600000015
 -27.0551695099999989  6.7015730400000004 12.5253515400000008
 -9.6083151299999994 15.7005251000000001  4.0311289900000000
 -9.0317080099999991 13.5046733900000007 19.5170529899999998
 -9.3147615300000002 12.4266523200000005 12.0744867399999993
 -9.0472516699999996 10.5048152100000003  4.9933117800000000
 -9.0987919099999992  8.8245848200000001 19.7471628000000017
 -8.7326297099999994  7.2200708599999999 11.7934853799999999
 -18.6119648499999997 -8.9271408799999996 12.3388795800000004
 -1.5288069200000001  2.4724109400000001  5.2461845399999998
 -2.9549772200000000  3.3579769399999999 19.8737509299999999
 -4.5734996700000004  4.4772018500000001 12.7648593199999993
 -5.9456607200000002  5.8908876699999997  4.9604773000000000
 -7.8841473899999999  5.7688815000000000 19.3465810599999983
 -25.6735479099999999  6.1117151200000004 19.7085158199999988
 -25.5519570400000013  4.0268880800000000 11.9805288200000000
 -7.8108999399999997 13.1573138000000007  4.9783077999999996
 -7.6580372700000003 11.2419722300000000 20.0010262800000014
 -7.5661767600000003 10.1197798900000002 12.4608912299999997
 -7.3749013000000003  7.9405936800000001  5.1851477399999997
 -18.2275728999999984 -6.7326977299999999 19.7556931599999999
 -19.8824555200000006 -6.3130728500000002 12.3852670800000002
 -2.7741211500000000  5.3031825599999998  5.4787860700000000
 -4.5666459100000001  6.1430983699999997 19.8676830399999993
 -6.0408306899999999  7.7044652899999999 12.3442677700000001
 -24.4582812300000008  5.3007308699999998  4.4843016200000001
 -24.1024862199999994  3.4588330300000001 19.3855226599999995
 -24.0124553300000017  1.8548957200000000 12.0517297200000009