Li                                      
   1.00000000000000     
    22.7325000000000017   -0.0000000000000006    0.0000000000000000
    -0.0000000000000006   22.7325000000000017    0.0000000000000000
     0.0000000000000006    0.0000000000000006   22.7325000000000017
   Li
   500
Direct
  0.9970652172000456  0.0069282907731250  0.9849571846475342
  0.0244967962168730  0.0980139245573497  0.0751056025514103
  0.0030388558231635  0.1987945927636616  0.1666213984383589
  0.0123390762124700  0.2892937613548909  0.3147683079291781
  0.9976315411855268  0.3998440338722062  0.4051864986253193
  0.0238959370944656  0.4917878592323746  0.5081128116133300
  0.9759754628835395  0.6065868698999211  0.6073584190036314
  0.9744180191355980  0.6713303640162778  0.7091638733091372
  0.0068552174199965  0.8047253469701943  0.8142405349169692
  0.0144330262839532  0.8929551822280857  0.8965702113713832
  0.0951183860112153  0.0147224374793780  0.1032008516441252
  0.1010792614098790  0.0975097833498282  0.2094423987682816
  0.0844807099967042  0.1994062927526699  0.2945075262289691
  0.1045932088419690  0.3177363440008776  0.4066036366435739
  0.1045372026833817  0.3913996740349717  0.4799111206422495
  0.0809595249092681  0.4837005956230058  0.6133256548993700
  0.1041773694050363  0.5803914787198963  0.7061515372264395
  0.0893748303090263  0.6866562195095156  0.8008629033322308
  0.0956795631804681  0.8025210601561668  0.8989748439458936
  0.0948052497525538  0.8916289695370097  0.9947265927636622
  0.1743112204992840  0.9931656236665560  0.2209748729792125
  0.1777942843945866  0.1135436810733523  0.2930086044209830
  0.2131204354998317  0.2340702558011643  0.3660635394259302
  0.2253374085560296  0.3279958759485311  0.4858322208292094
  0.2012960497085672  0.4035846690861078  0.6016948637413364
  0.1909809787748813  0.4716783411415406  0.7097800118772710
  0.1912504528758419  0.5872561258110665  0.8073324227427676
  0.2101425962828571  0.6974681662817517  0.8897126624876250
  0.1929817358407533  0.8182299852633861  0.9908247174749789
  0.1765097811503367  0.9006047271527535  0.1189843668756154
  0.2999297314417717  0.0095211657318828  0.2952797809303860
  0.2913296786539092  0.1014020195754952  0.3827081720004415
  0.3090213856812909  0.2255615699989022  0.4858955684592559
  0.3008452466732621  0.2999090896293879  0.6010046624876253
  0.3204978471351581  0.3578833018805696  0.7173526787638878
  0.3077542509622759  0.5138548184317600  0.8071530210051705
  0.3248974424282380  0.6176389961508875  0.9055104563950280
  0.3137681662817542  0.7089924922467858  0.0077074268118338
  0.2885830247443053  0.7850234457274823  0.0898012735070921
  0.2555084020675267  0.8983928652809823  0.2198859571098666
  0.3866900195754965  0.0145767764214213  0.3767033207962172
  0.4100883052897828  0.0977197096667766  0.4949077672935189
  0.4239430682942924  0.2043332040030776  0.5949359406136594
  0.4128284284614523  0.3035813799626084  0.7029189816342267
  0.3981014283514810  0.3960340015396469  0.8158682107115354
  0.4040381093148611  0.4918950704937899  0.8867882648190886
  0.4089472592103789  0.6155956700758836  0.0050729123501583
  0.4174863081491225  0.7260938387770821  0.1273402714175731
  0.3879836450016469  0.8346820930386016  0.2053933755636237
  0.4060199608490080  0.9198276445617495  0.2750210900692807
  0.4922010729132325  0.9869191958649495  0.5077030889695351
  0.4897144880677473  0.1057980002199486  0.6092914435279866
  0.4977621335092905  0.1913860208951945  0.7131753229957098
  0.4848910225448151  0.2944443857912660  0.8048539909820747
  0.4886835275486661  0.3920163356428006  0.9111815436049682
  0.4922067819201601  0.4822787159353368  0.0063490808314057
  0.4910733038601123  0.6151755218299826  0.1123304387990771
  0.4872777191245987  0.7120663169471015  0.2369728498845234
  0.5151398236005704  0.8332247082371040  0.3046882788958527
  0.5035845168811193  0.9296456113493861  0.3934617046079367
  0.5940783609369831  0.9947895594413296  0.5825148021555009
  0.6040902883536816  0.0814693830418989  0.6825205252391982
  0.5983991668316264  0.1728553436709532  0.7841496892114819
  0.5880089712966026  0.2883443048498862  0.8980288292092808
  0.5870348100736820  0.3819784044869650  0.0186666807434293
  0.5809262197294629  0.5032206765643892  0.0827698766083813
  0.5938256724953277  0.5841934741009567  0.2117806950401402
  0.6106576311448393  0.7242186618277771  0.3020825597712502
  0.5930175801165731  0.8010141955350250  0.4230602656988864
  0.6004739826239955  0.9023031685912244  0.5170730861101944
  0.7071058805674681  0.9698454111954220  0.7433446488507656
  0.7032421726602891  0.0923052400747792  0.8020810636753524
  0.6885007997360617  0.1749253843616003  0.8960443114483638
  0.7067815743978869  0.2636246598482330  0.9798795675794594
  0.6795006250962246  0.3696421722203880  0.0624143138678122
  0.6818058664907056  0.4859250808314073  0.1927299953810646
  0.6922288450456406  0.6196920365116014  0.3017665892444725
  0.7058926880017609  0.7190904603541171  0.4061069081711182
  0.6952106327944563  0.7807337591553960  0.5314902641592454
  0.6954397233036431  0.9003145610909513  0.6110072086220200
  0.8302858497745547  0.9901046924007488  0.7782057631144852
  0.8130867713625847  0.0979929374243937  0.8890663187066963
  0.7840350682942940  0.2087150229847126  0.9925628782579992
  0.8070607676234474  0.2962208419663455  0.0965989240074805
  0.7807167605850651  0.3940482956120093  0.1836252933025406
  0.8047542989112486  0.4837947225338155  0.3022282692180767
  0.8052774705817640  0.6055242093918380  0.4127213416914088
  0.8003940076982303  0.6749320263939325  0.5140182558011688
  0.8072016351039295  0.7848178889255450  0.6158847729022341
  0.8011008296491795  0.8786131943253039  0.6976064185637298
  0.9302591122841761  0.9920616843725938  0.9188339870229854
  0.8942118737490361  0.1228128014956553  0.9819458730891881
  0.8891791769492983  0.1920005762674606  0.0751320519080636
  0.9075148206312562  0.2711657054877392  0.1930839881227300
  0.8886508606620467  0.4031624449576583  0.2722332145606501
  0.8797409690971065  0.4835292259980193  0.3668534811393371
  0.9239777024084432  0.5708512284174674  0.4846682995710978
  0.9028516476410431  0.6926782188496645  0.6089254503464190
  0.9241561174529878  0.7830561350489376  0.7079383292642660
  0.9113924715715385  0.8967624216430252  0.7923908962938526
  0.1114996212471127  0.0827101387880802  0.9818977617947837
  0.1221926303750109  0.1916922722973737  0.1083470995271085
  0.1288417252831877  0.3189646145386575  0.1892885859452349
  0.1023826077202230  0.4140304871879437  0.3057647729022293
  0.1239015748377881  0.5189862993511483  0.3983809721763976
  0.0851270696139892  0.5907496342241316  0.5394438970636770
  0.0945508166721680  0.6947509301660588  0.6234143763334430
  0.0807588461453861  0.7871760114373672  0.7179510379412761
  0.1131416258660494  0.8951048036951477  0.7730117844495794
  0.1236359054217502  0.9988237127460664  0.8598639159793251
  0.1924112473331121  0.0750808995930967  0.1147098119432499
  0.2033898225008244  0.1974328520840203  0.1967859698669301
  0.2014660679643683  0.3148354800395907  0.3164954914769638
  0.1964911734301111  0.4077687768613245  0.4093402111514379
  0.1992332286374108  0.5095820200153938  0.5269082344660703
  0.1979407698229423  0.5644636454415490  0.6056428043550000
  0.2016555271087626  0.6701797430990837  0.7169770737930250
  0.2138857855493228  0.7659244988452656  0.7781677202243458
  0.2089827849994492  0.8713026930605992  0.8666023772132405
  0.2187845674694842  0.9642774565050019  0.9811283576377434
  0.2595474536456592  0.1063027885186401  0.2019303486198183
  0.3126795059936214  0.1941278592323741  0.2987081060156171
  0.3094242305069841  0.3162095990322200  0.3725123967887356
  0.3082412889035524  0.4057322080721448  0.5141569840536704
  0.3000898273397112  0.4786441447267151  0.6382476828329473
  0.2879452259980226  0.5843062580006588  0.7067225632904410
  0.3121255585615330  0.6881953049598621  0.7855979892224809
  0.3001242243484015  0.7581616016716168  0.9223055405256773
  0.2927446365335982  0.8768214934565037  0.0142465945232573
  0.2928625017046045  0.9774013716045289  0.1114066279555672
  0.4010255519630519  0.0974898818871637  0.2671688740789619
  0.3854439771252629  0.1800009704168062  0.3879662632794449
  0.4005635029143306  0.3005955684592578  0.5077689959309382
  0.4121574437479367  0.3800738400967774  0.6213489325855051
  0.3959680114373683  0.5021933909600804  0.7221917892884662
  0.4088078847465084  0.5989116647971002  0.7896368903552187
  0.4058371679313737  0.6997584427581671  0.8978999309358855
  0.4268510564170214  0.8008263187066973  0.9895778009457814
  0.3800462034532046  0.8986620587264937  0.0983184344000847
  0.3999694525459176  0.9805455088529627  0.2026612625096220
  0.5086138660508084  0.1206118222808783  0.3796628100736825
  0.5086459949411619  0.2223178651710072  0.4810591342791142
  0.5015165894644227  0.2748137631144871  0.6169714523259628
  0.5151002085120453  0.3978356410425619  0.7305047636643565
  0.5107901704607940  0.5049167539865849  0.8039541827779644
  0.4856925599912003  0.6231785505333747  0.9068330086880039
  0.4982019030023110  0.7050345175409660  0.9955607808204121
  0.4866814886176201  0.8106657138458147  0.1052539447927003
  0.4934433010007666  0.9250182672385350  0.1808213500494915
  0.5116615972726279  0.0018195517430968  0.2860653768833146
  0.6137249748157956  0.0880162415044552  0.4885474087759789
  0.5910141343890913  0.1961555688991510  0.5919328595622986
  0.5983167759815231  0.3161920000000009  0.7262024185637301
  0.5984426798636306  0.3966019989002518  0.8392163382821920
  0.5774083198064446  0.5112651890465187  0.9457083435609803
  0.5752492827449700  0.6137132708676987  0.0056636098097442
  0.5747174806994408  0.7181538876058511  0.1053860609259871
  0.5750695664797121  0.8256076652369941  0.1978324702518393
  0.5995435983723709  0.8836971296601774  0.2899882159903200
  0.6103525679093806  0.0113527333113410  0.3835627018585726
  0.7023763237655345  0.0853844227427700  0.6291333993181567
  0.7170172625096214  0.2054196480809409  0.7092612620697238
  0.7015773584075689  0.2985378005058834  0.8225101013966807
  0.7018611604530989  0.3897154140547698  0.9089221858572500
  0.6890638090839118  0.4876249356647975  0.9931193661057947
  0.6938140925987000  0.6043796309248890  0.0812348149125697
  0.6678477127460667  0.7252356568789153  0.2012098942043323
  0.7167331019465522  0.8145460543275078  0.2852637312218178
  0.6873631509952745  0.8759248006158558  0.4119335924337406
  0.7176016148685775  0.0188076199274150  0.4849357558561564
  0.8101529422632794  0.1131417930276015  0.7116294309908753
  0.8210520052787871  0.2164538634114166  0.7871801381282282
  0.7993281368085334  0.3107740732431523  0.8876952605300801
  0.8011039159793256  0.3725012141207529  0.0093193863411400
  0.7959494261519851  0.5072629024524389  0.0774556115693414
  0.7721965833058420  0.5995086950401429  0.2044059166391747
  0.7886634765203979  0.6865834839986817  0.3259414248322869
  0.8161616812933019  0.8042230458594517  0.4248333641262505
  0.7817333597272622  0.8774478051248238  0.5106521636423622
  0.7962435869350060  0.9860914932365574  0.6300614138348166
  0.9255276238865093  0.0857529919718445  0.7940511421972971
  0.9173776496205903  0.2153462659188392  0.8865793300340954
  0.9046754070163843  0.3021997030682968  0.0086870014296707
  0.9085193678653880  0.3635715165511897  0.1032755579016822
  0.9120081715605437  0.5005377565160032  0.1875763774331887
  0.9196044174639866  0.5909911523149702  0.2969799960409105
  0.9118222817551995  0.6628141739799815  0.4004907757615754
  0.9160265830858876  0.8057297419993432  0.5133370298031465
  0.9167936311448344  0.8933921337292432  0.5812712759265395
  0.9097034910370638  0.0151420173760002  0.6920556643571985
  0.0270456566589701  0.1033978708896939  0.8765985558121656
  0.0234198843066125  0.1929254670625724  0.9725275297481559
  0.9940087478279978  0.2602496540195745  0.0687090781920148
  0.0290241324095462  0.3806008547234114  0.1878310484988432
  0.9988103363026468  0.4954106684262598  0.2826046897613566
  0.0331035139117972  0.6074492163202478  0.3916672477730145
  0.0142029952710843  0.6788951672715271  0.5045498207412322
  0.0166856755746210  0.7754243132079637  0.5917144269218113
  0.0053506970196864  0.8966550225448131  0.7163846255361292
  0.0277156801935519  0.0053112301770568  0.7968040334323092
  0.2295350225448161  0.1632388179918607  0.9887528168921165
  0.2223884297811480  0.3002101748597852  0.0907092809853722
  0.2127035847355074  0.4055909534806972  0.1986521051358210
  0.2387665478939809  0.5060883167271513  0.3097658334982967
  0.2148970605960656  0.5915046580886383  0.4389630669745941
  0.1989044354998342  0.6830289580996336  0.5120536689761366
  0.1910321368085306  0.8063891054657404  0.5956613905201777
  0.1879881601231688  0.9078613051798072  0.7171386618277822
  0.1913339672275356  0.0073184247223139  0.7852557290223245
  0.2177828993731410  0.0731941031562755  0.8930725929836143
  0.2863270520180379  0.2001517263829342  0.1108779663477435
  0.3172025452545881  0.2780579311558355  0.2022079124601319
  0.3258097468382246  0.3877640303530185  0.3106206167381487
  0.3084174314307688  0.5092344863081522  0.4311837760915012
  0.3240716049708539  0.6118691692510723  0.5346603615968348
  0.2850286928406476  0.6983754492466758  0.5994082155504259
  0.2545589165291986  0.8029381194325325  0.6745697371604535
  0.2891612325965056  0.9099820767623470  0.8072757589354467
  0.2896308659408362  0.9862763686352167  0.8905836146486337
  0.2973662509622770  0.0796114294512265  0.0126796300450920
  0.4083554536456617  0.1912249576597418  0.1899378563730352
  0.4261010122071909  0.2925903930496006  0.2670872275376652
  0.4094561799186209  0.4094813997580573  0.3972917158253608
  0.4114311347190167  0.5108251204223038  0.5376358658308575
  0.3821495955130345  0.6112154510062666  0.6274318847465068
  0.4070884227427669  0.7027518420763244  0.6921099623886491
  0.3944042564610157  0.8120967082371067  0.7998988615418483
  0.3661714070163882  0.8797250566369712  0.8796973975585587
  0.3700175642802179  0.0007120400307912  0.0059849954910405
  0.3880137573957967  0.0967880646651267  0.1210548232706472
  0.4912449453425722  0.1928310718134796  0.2808578757285858
  0.4703138141427488  0.2842245485538299  0.3468769479819613
  0.4908020252941796  0.3778578510942481  0.5088084245023623
  0.4704568432860441  0.4999900829209309  0.6070296109094926
  0.5027070951281232  0.6033630792917606  0.7172090214450648
  0.5223991765094027  0.7078820296931738  0.7878082925327163
  0.5059469130100069  0.8029179997800497  0.8947573782030105
  0.4676782298471380  0.9333014323105715  0.9974118002859313
  0.5173771696909739  0.9972148567029606  0.1166295933135402
  0.5086672095018159  0.1072966026613855  0.2031545923237630
  0.6021391685912221  0.1935330218849671  0.3629428210711509
  0.5610367069174060  0.3113651358187610  0.4839289572198382
  0.5823415273287154  0.4119769686572070  0.6059709319256541
  0.5760604003079308  0.5168398601121709  0.6974259425932061
  0.5930635306279584  0.5875152306169582  0.8174348369075091
  0.6072547216540229  0.6987978902452454  0.8898330007698263
  0.6025043857912706  0.8095214609039942  0.0205256760145147
  0.6147653003409204  0.9138329449026728  0.0893094784999420
  0.5970682907731231  0.0178700160563068  0.1944066763444425
  0.6046888987132988  0.1155222760365149  0.2754233106785406
  0.6745705201803602  0.2243104229627164  0.4950330777521188
  0.6739934872979205  0.2995582760365139  0.5838304401187742
  0.6850719925217206  0.4254765753876626  0.7233179364346185
  0.6813358429561234  0.5188122639392958  0.8258530830308999
  0.6819609726162952  0.5997849519410536  0.9349791734301078
  0.6773125450346384  0.7181281121741989  0.0008349613988798
  0.7004891301000740  0.7926540846805210  0.1125781282305098
  0.6908850060486103  0.8853999414934535  0.1963788597822500
  0.6843962274276905  0.0004687487077959  0.2798673815022568
  0.7011500182558024  0.0973305153414685  0.3730795693390547
  0.8061122692180831  0.2382356810733555  0.6095608001759629
  0.7899293909600758  0.3324397127460657  0.7292789187286957
  0.7959879230177052  0.4148688608819953  0.8196966079401733
  0.7903863433410336  0.5292600197954442  0.9331316322445815
  0.7931895519630459  0.6413377622346843  0.0243994809193850
  0.7602620433300373  0.7105818959639265  0.1040464519960409
  0.7872589882327077  0.7954157774111934  0.2135217010887516
  0.8104472922027952  0.9268062940723638  0.2902945694490242
  0.7838314633234376  0.9799605208402085  0.3979086611679321
  0.8041678345980401  0.1248406352139000  0.5119689268668211
  0.9210154694820218  0.2074395825360185  0.7297257305619738
  0.9294348149125682  0.3286776320246361  0.8154580908391083
  0.8844572198394403  0.4302646690861067  0.9160414076762322
  0.9192440351919089  0.5024808569229080  0.0038910436599551
  0.9058838746288345  0.6257773496095922  0.1138060943582957
  0.8944116221269098  0.7128729017925863  0.1761063451006279
  0.8959925987022999  0.8082778330583977  0.2946255044539754
  0.8933270106675479  0.9104528419663467  0.4125964794897143
  0.8900599485318352  0.0027847970966661  0.5370404359397369
  0.9071357224238454  0.1360293342131342  0.6161423789728389
  0.0435714338502109  0.1916876023314629  0.8038989719564498
  0.0390313181568231  0.3027254477070258  0.9176983508193146
  0.0114268351479154  0.4038000334323115  0.0045440629055307
  0.0005731371384599  0.5021768503244246  0.1189252796656746
  0.0135754624436402  0.6136925116023306  0.1892906283954687
  0.0279628003959118  0.7068212475530657  0.2922069341251543
  0.0016087104365994  0.8027946028813346  0.4037753467502441
  0.0103502078521913  0.9202994030572995  0.5179591474760770
  0.9978004025074227  0.0107747471681492  0.6133654921368077
  0.0230913546684235  0.1329354105355733  0.6916815383261863
  0.1132743970086878  0.1739598684702486  0.9094180785219379
  0.1143768256900941  0.3063469358847470  0.9985866701858583
  0.1187348056746913  0.3866792952820859  0.0890458387770821
  0.1291062104915852  0.4782666490707115  0.1876584700318915
  0.0993524478170045  0.5959234949961498  0.3095540745628540
  0.1015748940943553  0.7115777433190331  0.4400186090399174
  0.1249728340481724  0.7845608199714036  0.4981607548663831
  0.0734782250082446  0.9136440541075572  0.6238290355218297
  0.1038592416144297  0.0234950260640048  0.6878063486198158
  0.1300055510832507  0.1154578660508108  0.7806071914659611
  0.3190703103486214  0.2824372435939750  0.9841569510612587
  0.3050854257120861  0.3813840039590914  0.0958371437369436
  0.3223286888815551  0.4986356639172982  0.2024268043549995
  0.3169632759265397  0.6164979091608913  0.3217021458264568
  0.3138404275816526  0.7182113269548012  0.4428636252062006
  0.2964135911140460  0.7963047834598029  0.4819340433300354
  0.3044129026723823  0.8823103349829537  0.5683174213130968
  0.3004833295941935  0.9984863596172886  0.6801377983063901
  0.2867797967667443  0.0781616676564383  0.7596620609259901
  0.3202357087869814  0.1640145782470057  0.8800575502034533
  0.3968769422632761  0.2889404874078991  0.1263172070823728
  0.3938287838996999  0.3991032759265352  0.1939633449906495
  0.3861372594303276  0.5090533262949535  0.3011334701418704
  0.4240725551523141  0.6038010473990951  0.4098661986143171
  0.3997469222478855  0.7312827528868340  0.4867236691960883
  0.3787655699988974  0.7993207209941744  0.6042307066974573
  0.4002131125041259  0.8954417613548884  0.6978692185197417
  0.3871040382711968  0.0007517769712990  0.7884751158033652
  0.3782955798966228  0.0992417173650040  0.8957899703068293
  0.3817293760035199  0.1731485406356512  0.0195880413504881
  0.4974000747828029  0.3037408679203750  0.1895278614318698
  0.5030650482788985  0.4233883413614876  0.2958980134169167
  0.4985503358627525  0.5218213518090806  0.4545079494116351
  0.4799309635983704  0.6334023600571896  0.5076902760365130
  0.5179227476080470  0.7066600514681625  0.6007003277246241
  0.5171594936764521  0.8079008283294868  0.6770723334433058
  0.4979547471681514  0.9101332237985247  0.7824878825470165
  0.4826670933685264  0.9919923132079589  0.8792878385571328
  0.4630480457494741  0.0915058396568824  0.0182807619047622
  0.4982100411305410  0.1931786292752662  0.0890052660288134
  0.5794167148355882  0.3041433405916649  0.2956541924557357
  0.5824388742989086  0.4141808652809829  0.3882394844385786
  0.6009625610909524  0.4927059826239955  0.4994394461673792
  0.6058308408666022  0.5880148030352998  0.6112172475530642
  0.6170676348839734  0.6925148518640682  0.7039026847025198
  0.5952636128890347  0.8271343468602197  0.8023740609259846
  0.6080356172880244  0.8978500182558022  0.9210213883206890
  0.5995458436159709  0.0219814868580244  0.9838055480039571
  0.6096847966567722  0.1421082283074924  0.0670515781370256
  0.5971139271967445  0.2136746869020101  0.1990279129000356
  0.6917691595732975  0.3121934274716835  0.3766501071153669
  0.6996712996810714  0.4037599692070799  0.5152563761134914
  0.6962089523809496  0.5077162687781822  0.6069639384141681
  0.6977366035411876  0.5771811824480366  0.7363815185307345
  0.6701121275706612  0.6847563110084707  0.7771856958099619
  0.6903900068184328  0.8105142214890577  0.9056991866270749
  0.7177024409985719  0.9158715842956084  0.0053722137908281
  0.6872068025954050  0.0330996511602351  0.0857296377433201
  0.7089952592103828  0.1097214837787277  0.1951054886176209
  0.6967374859782254  0.2016214749807546  0.3023089721763981
  0.7879503367425471  0.2987719969207063  0.4891051503354262
  0.7857221678213975  0.3827974952161028  0.6205463714945552
  0.7992899588694584  0.4928911083250824  0.7063719621687028
  0.8008875847355128  0.6009524139447961  0.8044160879797673
  0.7960457604750886  0.6811800796216900  0.9067771208622020
  0.8008892933025393  0.8231501211921284  0.9869467190146253
  0.8033514593643432  0.9242360615858374  0.1056963444407799
  0.8046755666996575  0.9906748712196176  0.1856038178818906
  0.7912661779390717  0.1075609479819661  0.2989115205102806
  0.7941459562300679  0.2013895387660867  0.4114362485428344
  0.8838210060486063  0.3101186050808309  0.6051029187286900
  0.9078432042230276  0.4296142399648062  0.7126683681953168
  0.9055577415594414  0.5033006457714748  0.8381040228747381
  0.9085619830638976  0.6197549464423204  0.9360518455955145
  0.8773173482898926  0.7194190704937853  0.0258905034642041
  0.9106712614098740  0.8254457160453086  0.1012326778840844
  0.9078480695040128  0.8937674303310246  0.2103857626745835
  0.8900141084350608  0.0270106613878838  0.3032522599802050
  0.8879742175299654  0.1151970522379884  0.4080836907511269
  0.8782687539865819  0.2526747278126038  0.5250169585395383
  0.0032814749807528  0.2945086673265180  0.6993419267568441
  0.0381392816452220  0.3858394153744626  0.8086563739139976
  0.0166710911690302  0.5067661339491920  0.8967747414494696
  0.9922938066644704  0.6309619302760368  0.0063393212361191
  0.0144559014626608  0.7174561513251945  0.1022843589574407
  0.0008893280545479  0.7919322859342373  0.2109934965357994
  0.0006093271747503  0.9010255858352565  0.3075668157923701
  0.9764807755416243  0.0067694441878388  0.4256988430660940
  0.9998908135928701  0.1054756155284267  0.5142454864181261
  0.0038237778510961  0.2157519019025642  0.5821111224018480
  0.1294090408006170  0.2871053526888829  0.8103202375453620
  0.1359663534587057  0.4136699351149247  0.9005171758495578
  0.1202550124271440  0.5049094235125935  0.0105347867590453
  0.1134426411525382  0.6131663464203214  0.0862058977235236
  0.1162392596502784  0.6890929035521864  0.1998310370614789
  0.0929795398658300  0.7985102443637970  0.3145819813043005
  0.0868023525789070  0.8820697595952964  0.4048227823600570
  0.0829967597052672  0.0116298950841340  0.5115831259210353
  0.1113647258330559  0.1335479656878888  0.5778749446827263
  0.1112243171670499  0.2149694631034862  0.6745493302540382
  0.2056560145166628  0.2559840857802698  0.9205591932255572
  0.2358296636973520  0.4116404464973087  0.9868125793467470
  0.2243752328164490  0.5277566704058074  0.0904763466402727
  0.2372868386671101  0.6065499549103706  0.1930429534806990
  0.2033571314197715  0.6972042815352495  0.3144899953810594
  0.1974534631034857  0.7869006312548095  0.4093570421203125
  0.1974806915209513  0.9015861599032249  0.5029049748157917
  0.1950724636533607  0.0113651648520872  0.5894420103376206
  0.2244486497305616  0.1190036832728438  0.6549108386671065
  0.2110287966567697  0.1720456689761320  0.8041378049048689
  0.3826006673265141  0.3723587955570196  0.9733049968107323
  0.3913559208182136  0.4948354734411069  0.0848283374023993
  0.3755400932585502  0.6093660015396480  0.1807881671615519
  0.3867551215220502  0.7415962159903202  0.3110986481909137
  0.3850075376663398  0.8136894371494563  0.3964258458154646
  0.3996384665127053  0.8900742025734090  0.4530878807874217
  0.3890725569119127  0.9978656544594742  0.5909005683492765
  0.3824971023864521  0.0961000263939269  0.6934943059496348
  0.4151757228637436  0.1790963343231056  0.7837203739140008
  0.3843024282415044  0.2734987630045111  0.8971728780380488
  0.4670972132409545  0.3914054041570409  0.0760054248322888
  0.4865768217309991  0.5231432336962527  0.1654070049488610
  0.4734142637193415  0.6030865932035638  0.2926278895853969
  0.5032984040470723  0.7196511202023501  0.4100192292972622
  0.5185372708677036  0.8026934037171429  0.5059794356098095
  0.4822744159243371  0.9074568305289787  0.6045901876168500
  0.4819763774331918  0.9988345056636945  0.6695064665127006
  0.4906065703288220  0.0692588655009345  0.7763066059606274
  0.4649380442098305  0.2004712248982727  0.8860404579346763
  0.4911802788958539  0.2532236494006384  0.9944239375343642
  0.5923644007478259  0.3820246286154187  0.2054372704278009
  0.5836617925877050  0.4881410654349523  0.2955895260090173
  0.5934829847135177  0.6047242674584865  0.3817739148795809
  0.6314377485978255  0.6940547951171254  0.4782372937424384
  0.6019667357307839  0.8085973500494887  0.6166711760695023
  0.5894570768723213  0.9210438310788547  0.7273547445287605
  0.5870994760805033  0.9943175075332675  0.8262580252941802
  0.5722544018475730  0.0939276467612444  0.8903436313647859
  0.5692589869130131  0.2086945280985404  0.9551712081821151
  0.5823712719674461  0.2846166967997377  0.0770647495875920
  0.6912161922357853  0.3784748338282213  0.2887414529858106
  0.7046167698229411  0.4936365608709963  0.3885589605190773
  0.7096950440998597  0.5442126642472260  0.4883790128670427
  0.7312326457714704  0.6674922261079956  0.6299532110414603
  0.7100086048608816  0.7850079942813153  0.6997946327944575
  0.7284879520510259  0.8971425039040994  0.8236674716815102
  0.7182306301550625  0.0007655383261849  0.8902927764214255
  0.6725548166721680  0.1170548166721659  0.9722616790938119
  0.6827552974815774  0.2337805415154506  0.0837885547124131
  0.6910278297591574  0.2790352451336204  0.2123409427031788
  0.7753102324865253  0.4020155675794541  0.3964840677444172
  0.7782371041460436  0.4866831694710214  0.5031690966677687
  0.8197044179038855  0.5818398715495405  0.5971757523369661
  0.7992717422192896  0.6848399102606422  0.7120344414384689
  0.8043801610029675  0.7832992627295710  0.8077810575167703
  0.8192862632794444  0.9366831483558755  0.8890982641592444
  0.7985036260860028  0.0197516300450928  0.9904950467392482
  0.7876437435389860  0.1367794730012122  0.0671016702958340
  0.7788112059826204  0.2062806712856045  0.1920848551633156
  0.7858274694820224  0.2937509033322314  0.2893940838007225
  0.8794721662817579  0.3925799947212170  0.4994295378862859
  0.9040803629165310  0.4873712473331153  0.6016884469372030
  0.8849874140547698  0.5819559912020225  0.7117467247333096
  0.9038863618167809  0.6921832143407016  0.8346609660178146
  0.9206672900033013  0.7985769897723500  0.9015694802595391
  0.9048307445287591  0.8947466248762765  0.9836285529528226
  0.8806155117123069  0.0165031030462970  0.0728163611569315
  0.8888074694820176  0.1011338326185012  0.1794947889585430
  0.9059426429121302  0.1696675156713923  0.2860546622676807
  0.8861827106565485  0.2981820076982302  0.3858874061365896
  0.0125656342241314  0.3738815440448704  0.5972231224018500
  0.0044722771362586  0.4821768019355517  0.7026378251402150
  0.0030087253931583  0.6138394158143612  0.8047050821511021
  0.9906396577587131  0.6841433771032683  0.9114879331353762
  0.9848592851644113  0.8059131512152220  0.0276732994611208
  0.9980974635433881  0.9185528516441224  0.0930515513031978
  0.9903718865061037  0.9970296258660483  0.1891249783349807
  0.9749699038821049  0.1013409339051989  0.2897717677334199
  0.9657982426042011  0.1988260983173902  0.4120586675464608
  0.9937259989002527  0.2982062245683466  0.4983013579676694
  0.0956454675024716  0.3905290500384879  0.7147087680633462
  0.1077929840536669  0.5049498247003186  0.8051411235015919
  0.0855890073683057  0.5799243101286677  0.9108177661937731
  0.1081957664137221  0.7125205591114039  0.0096959929616176
  0.0919246633674220  0.8004028523039679  0.1197133434510036
  0.0779514056966875  0.8980264687121959  0.2233424819091638
  0.0872537266028814  0.9927443035301877  0.3026232930825898
  0.0911215009347828  0.1039558807874172  0.3902923853513727
  0.1129373161772804  0.2024996533597303  0.4704287900582855
  0.1278676454415475  0.2924044882876942  0.6144427674034958
  0.1936239089409426  0.3671819641482443  0.7967290795117137
  0.2099193995381086  0.4918053544484735  0.8972155860552107
  0.2171180816012352  0.5917749600791851  0.9744678205212836
  0.2086585430550940  0.7037233537886252  0.1222208327284733
  0.1783548879357753  0.7938501409875727  0.2119474839986779
  0.1699201363686385  0.8965077730122104  0.3178866948201886
  0.1949132867040575  0.9932900754426512  0.3941758882656998