Li 
 1.0000000000000000
    22.7325000000000017   -0.0000000000000006    0.0000000000000000
    -0.0000000000000006   22.7325000000000017    0.0000000000000000
     0.0000000000000006    0.0000000000000006   22.7325000000000017
 Li 
 500
Cartesian
 -0.0667149500000000  0.1574973700000000 -0.3419608000000000
  0.5568734200000000  2.2281015399999999  1.7073381100000000
  0.0690807900000000  4.5190980800000000  3.7877209399999998
  0.2804980500000000  6.5763704299999999  7.1554705600000004
 -0.0538409900000000  9.0894545000000004  9.2109020800000003
  0.5432143900000000 11.1795675100000000 11.5506744900000005
 -0.5461377900000000 13.7892360200000006 13.8067752600000002
 -0.5815423800000000 15.2610174999999995 16.1210677500000017
  0.1558362300000000 18.2934189499999995 18.5097229600000013
  0.3280987700000000 20.2991036800000018 20.3812823300000012
  2.1622787099999998  0.3346778100000000  2.3460133600000002
  2.2977843099999999  2.2166411500000001  4.7611493300000003
  1.9204577400000000  4.5330035500000001  6.6948923400000000
  2.3776651200000001  7.2229414399999996  9.2431171699999997
  2.3763919599999999  8.8974930899999993 10.9095795500000001
  1.8404123999999999 10.9957237899999996 13.9424254500000000
  2.3682120499999999 13.1937492899999995 16.0525898200000015
  2.0317133300000001 15.6094125100000003 18.2056159499999985
  2.1750356700000002 18.2433100000000010 20.4359456399999999
  2.1551603400000001 20.2689555500000012 22.6126222699999992
  3.9625298199999999 -0.1553624600000000  5.0233112999999996
  4.0417085699999999  2.5811317300000001  6.6608181000000002
  4.8447602999999999  5.3210020900000004  8.3215394099999997
  5.1224826400000003  7.4561662499999999 11.0441809600000003
  4.5759624499999996  9.1744884899999999 13.6780284900000009
  4.3414751000000003 10.7224278900000005 16.1350741199999987
  4.3476009199999996 13.3497998800000008 18.3526843000000000
  4.7770665699999997 15.8551950900000005 20.2253931000000016
  4.3869573099999997 18.6004131400000006 -0.2085771100000000
  4.0125086000000003 20.4729969599999997  2.7048121200000002
  6.8181526200000002  0.2164399000000000  6.7124476199999998
  6.6226519200000000  2.3051214099999999  8.6999135200000008
  7.0248286499999999  5.1275783900000000 11.0456210099999996
  6.8389645699999999  6.8176833800000001 13.6623384899999998
  7.2857173099999999  8.1355821600000002 16.3072197699999997
  6.9960235099999997 11.6812046600000006 18.3486060500000008
  7.3857311100000000 14.0404784800000009 20.5845164499999989
  7.1327348400000004 16.1171718300000002  0.1752090800000000
  6.5602136099999999 17.8455454799999984  2.0414074499999999
  5.8083447499999998 20.4227158099999997  4.9985575200000003
  8.7904308699999998  0.3313665700000000  8.5634082399999993
  9.3223324000000005  2.2214133000000000 11.2504908199999996
  9.6372858000000008  4.6450045600000003 13.5243812699999992
  9.3846222499999996  6.9011637199999996 15.9791057500000004
  9.0498407200000006  9.0028429400000007 18.5467240999999987
  9.1847963200000002 11.1820046899999994 20.1589142300000006
  9.2963935699999993 13.9940285699999993  0.1153199800000000
  9.4905074999999997 16.5059281899999988  2.8947627200000001
  8.8198382100000003 18.9744106799999983  4.6691049099999997
  9.2298487599999994 20.9099819300000007  6.2519169300000001
 11.1889608900000006 -0.2973593800000000 11.5413604700000008
 11.1324345999999998  2.4050530399999999 13.8507177400000003
 11.3153777000000009  4.3506827200000000 16.2122580300000010
 11.0227851700000006  6.6934570000000004 18.2963433500000008
 11.1089982900000006  8.9115113499999996 20.7134344400000003
 11.1890906700000006 10.9634009100000007  0.1443304800000000
 11.1633238800000001 13.9844775499999994  2.5535516999999999
 11.0770407500000001 16.1870475499999991  5.3869853100000000
 11.7104160400000001 18.9412806799999984  6.9263263000000004
 11.4477350300000005 21.1331688600000014  8.9443681999999995
 13.5048863400000005 -0.1184463400000000 13.2420177399999996
 13.7324824799999998  1.8520027500000000 15.5153978400000003
 13.6031090599999995  3.9294340999999999 17.8256828100000000
 13.3669139399999999  6.5547869099999998 20.4144403600000004
 13.3447688200000005  8.6833240800000002  0.4243403200000000
 13.2059052900000005 11.4394640299999999  1.8815662200000001
 13.4991421000000003 13.2801781499999993  4.8143046500000004
 13.8817746000000000 16.4633007300000003  6.8670917899999999
 13.4807721399999991 18.2090552000000017  9.6172174899999998
 13.6502748100000009 20.5116067800000010 11.7543639300000002
 16.0742844299999987 -0.6854891900000000 16.8980822300000000
 15.9864526900000001  2.0983288700000000 18.2333077800000005
 15.6513444300000000  3.9764913000000002 20.3693273099999992
 16.0669121399999995  5.9928475800000003 -0.4573877300000000
 15.4467479599999997  8.4028906800000005  1.4188333900000001
 15.4991518599999996 11.0462918999999999  4.3812346199999999
 15.7360922199999997 14.0871492200000006  6.8599089900000001
 16.0467055300000006 16.3467238899999998  9.2318252899999997
 15.8038757099999998 17.7480301800000007 12.0821024300000008
 15.8090835100000007 20.4664007599999991 13.8897213700000002
 18.8744730800000013 -0.2249450800000000 17.6905625099999995
 18.4834950300000003  2.2276244500000000 20.2107000899999996
 17.8230771899999993  4.7446142599999996 -0.1690643700000000
 18.3465088999999999  6.7338402899999998  2.1959350400000002
 17.7476437599999990  8.9577028799999994  4.1742619799999998
 18.2940770999999991 10.9978635300000001  6.8704041299999998
 18.3059700999999997 13.7650790900000004  9.3821878999999999
 18.1949567799999983 15.3428922900000000 11.6849200000000000
 18.3497111699999991 17.8408726599999987 14.0006006000000003
 18.2110246099999991 19.9730744400000013 15.8583379099999995
 21.1471152700000005 -0.1804577600000000 20.8873936100000002
 20.3276714200000015  2.7918420099999999 22.3220845600000004
 20.2132656399999995  4.3646531000000000  1.7079393700000001
 20.6300806600000008  6.1642744000000000  4.3892817600000003
 20.2012556900000000  9.1648902799999998  6.1885415500000001
 19.9987115799999984 10.9918281300000000  8.3394967599999994
 21.0043231199999987 12.9768755500000008 11.0177221200000002
 20.5240750799999994 15.7463076100000006 13.8423978000000005
 21.0083789400000001 17.8008235900000003 16.0932080699999993
 20.7182293599999987 20.3856517500000010 18.0130260500000006
  2.5346651400000000  1.8802082300000000 -0.4115091300000000
  2.7777439700000000  4.3576445799999997  2.4630004400000001
  2.9288945200000001  7.2508631000000001  4.3030027799999999
  2.3274126300000000  9.4119480499999995  6.9507976999999999
  2.8165925500000002 11.7978560500000000  9.0561954500000006
  1.9351511100000001 13.4292160599999999 12.2629083899999998
  2.1493764400000002 15.7934255199999996 14.1717673099999999
  1.8358504700000000 17.8944786799999989 16.3208219700000008
  2.5719920100000002 20.3479699499999995 17.5724903899999987
  2.8105532200000001 22.7057600499999985 19.5468564700000016
  4.3739886800000001  1.7067765500000001  2.6076408000000000
  4.6235591400000002  4.4881423099999997  4.4734370600000002
  4.5798273900000002  7.1569975499999998  7.1947337600000001
  4.4667355999999998  9.2696037199999992  9.3053263499999996
  4.5290693700000002 11.5840732699999993 11.9779414400000004
  4.4996885500000001 12.8316698200000001 13.7677750499999991
  4.5841342699999998 15.2348610099999995 16.2986813300000009
  4.8621586199999998 17.4113786700000013 17.6896977000000000
  4.7507011600000002 19.8068884700000005 19.7000385400000013
  4.9735201800000004 21.9204372800000016 22.3035003900000000
  5.9001624899999996  2.4165281400000000  4.5903816500000003
  7.1079868700000004  4.4130115600000002  6.7903820200000000
  7.0339863200000003  7.1882347099999997  8.4681380599999994
  7.0070950999999999  9.2233074199999994 11.6880736400000007
  6.8217920000000003 10.8807780199999993 14.5089654499999998
  6.5457148500000004 13.2827420099999998 16.0655706699999996
  7.0953942600000000 15.6443997699999997 17.8586062900000009
  6.8225739299999999 17.2349086100000015 20.9663107000000011
  6.6548174500000004 19.9323446000000004  0.3238607100000000
  6.6574968200000004 22.2187766800000013  2.5325511700000001
  9.1163133599999995  2.2161887400000002  6.0734164300000000
  8.7621052099999996  4.0918720600000000  8.8194430799999992
  9.1058098300000001  6.8332887600000003 11.5428587000000000
  9.3693690899999993  8.6400285700000001 14.1248146099999996
  9.0013428199999996 11.4161112599999992 16.4172248500000002
  9.2932252399999999 13.6147594200000004 17.9504206099999983
  9.2256934200000007 15.9072587999999993 20.4115101800000005
  9.7033916399999995 18.2047842899999992 -0.2369226400000000
  8.6394003200000000 20.4288352499999988  2.2350238099999999
  9.0923055799999997 22.2902507800000009  4.6069971499999998
 11.5620647099999996  2.7418082500000001  8.6306848299999999
 11.5627950800000008  5.0538408700000002 10.9356767700000006
 11.4007258700000005  6.2472038699999999 14.0253035399999995
 11.7095154899999994  9.0437987100000008 16.6061995399999986
 11.6115375499999995 11.4780201099999992 18.2758884600000009
 11.0410061200000005 14.1664063999999996 20.6145813699999998
 11.3253747600000008 16.0271971700000009 -0.1009145500000000
 11.0634869400000007 18.4284583399999988  2.3926853000000001
 11.2171998399999993 21.0279777599999989  4.1105213400000000
 11.6313472600000001 22.7738629599999989  6.5029811799999999
 13.9515029899999998  2.0008292100000000 11.1059039700000000
 13.4352288099999999  4.4591064700000000 13.4561137300000002
 13.6012361100000003  7.1878346400000002 16.5083964799999983
 13.6040982199999991  9.0157549400000008 19.0774854100000013
 13.1259346299999997 11.6223359100000003 21.4983149199999986
 13.0768543200000007 13.9512369300000003  0.1287480100000000
 13.0647651299999996 16.3254332499999997  2.3956886300000000
 13.0727689199999997 18.7681262500000017  4.4972266300000001
 13.6291248500000002 20.0886449999999996  6.5921571200000004
 13.8748397499999996 22.9905760100000016  8.7193391200000008
 15.9667697799999999  1.9410013900000000 14.3017749999999992
 16.2995949200000005  4.6697021500000000 16.1232816399999983
 15.9486073000000008  6.7865105500000000 18.6977108799999989
 15.9550588300000005  8.8592056499999998 20.6620735899999985
 15.6641430400000008 11.0849338500000005 -0.1564140100000000
 15.7721288600000005 13.7390599600000005  1.8466704300000001
 15.1818481300000006 16.4864195699999989  4.5740039200000000
 16.2931352400000016 18.5166681799999999  6.4847577699999999
 15.6254828299999993 19.9119605300000018  9.3642803899999993
 16.3128787099999997 23.1600442199999996 11.0238020700000003
 18.4168017599999985  2.5719958100000002 16.1771160400000014
 18.6645647100000005  4.9205374500000003 17.8945724900000016
 18.1707268699999993  7.0646716200000004 20.1795325100000014
 18.2110947699999990  8.4678838499999998  0.2118529500000000
 18.0939203299999996 11.5313539299999999  1.7607596900000000
 17.5539588299999991 13.6283314099999995  4.6466574999999999
 17.9282924799999996 15.6077590500000003  7.4094634399999997
 18.5533954200000011 18.2820003900000003  9.6575244500000004
 17.7707535999999990 19.9465822300000006 11.6084003100000004
 18.1006073399999998 22.4163248700000004 14.3228710899999996
 21.0395567099999994  1.9493798899999999 18.0507675899999995
 20.8542874199999986  4.8953589900000001 20.1541646199999995
 20.5655336899999988  6.8697547500000002  0.1974772600000000
 20.6529165299999988  8.2648895000000007  2.3477116200000001
 20.7322257599999986 11.3784745500000000  4.2640799999999999
 20.9049074200000007 13.4347063700000007  6.7510977600000004
 20.7280000199999996 15.0674232099999994  9.1041565599999998
 20.8235743000000006 18.3162513599999990 11.6694340299999997
 20.8410112199999986 20.3090366799999984 13.2137492800000000
 20.6798346100000003 23.0767159100000008 15.7321553900000008
 23.3473153899999986  2.3504920999999999 19.9272766700000012
 23.2648925200000001  4.3856781800000002 22.1079820699999985
 22.5963038599999990  5.9161252600000003  1.5619291200000001
 23.3922910900000005  8.6520089299999992  4.2698693099999998
 22.7054559699999992 11.2619230199999993  6.4243111099999997
 23.4850256299999991 13.8088393099999998  8.9035757100000001
 23.0553695900000015 15.4329843899999997 11.4696788000000005
 23.1118071200000017 17.6273331999999989 13.4511482099999995
 22.8541347200000011 20.3832102999999982 16.2852135000000011
 23.3625466999999993 22.8532375399999985 18.1133476900000012
  5.2179048999999997  3.7108264300000000 -0.2556765900000000
  5.0554449799999999  6.8245278000000003  2.0620487299999999
  4.8352842400000000  9.2200963500000004  4.5158589800000000
  5.4277605500000004 11.5046526599999996  7.0417518100000001
  4.8851474300000000 13.4463796400000000  9.9787279200000008
  4.5215950800000000 15.5269557900000006 11.6402600300000003
  4.3426380499999997 18.3312403400000008 13.5408725600000004
  4.2734408500000001 20.6379571199999994 16.3023546300000000
  4.3494994100000000  0.1663660900000000 17.8508258600000005
  4.9507497599999999  1.6638849499999999 20.3017727199999989
  6.5089297100000003  4.5499491200000000  2.5205333699999999
  7.2108068599999999  6.3209519199999997  4.5966913700000003
  7.4064700700000001  8.8148458200000004  7.0611831699999996
  7.0110992599999999 11.5761729599999992  9.8018851900000001
  7.3669577600000000 13.9093158900000002 12.1541666700000004
  6.4794147600000001 15.8758198999999998 13.6260472600000000
  5.7867605700000002 18.2527907999999996 15.3346565500000001
  6.5733577199999997 20.6861675600000012 18.3513961899999991
  6.5840336600000002 -0.3119724500000000 20.2451920200000011
  6.7598782999999996  1.8097668200000001 23.0207396899999992
  9.2829403500000005  4.3470213500000003  4.3177623199999999
  9.6863412600000007  6.6513111100000000  6.0715604000000001
  9.3079626100000006  9.3085359200000006  9.0314339300000004
  9.3528582700000005 11.6123320499999991 12.2218073199999999
  8.6872156799999996 13.8944552399999992 14.2630953199999997
  9.2541375699999993 15.9753062499999992 15.7333897199999999
  8.9657947599999996 18.4609884199999996 18.1837008699999991
  8.3239915100000008 19.9983498500000003 19.9977210899999989
  8.4114242800000003  0.0161864500000000  0.1360539100000000
  8.8205227399999995  2.2002346799999999  2.7518787699999998
 11.1672257199999994  4.3835323400000004  6.3846016600000004
 10.6914087799999997  6.4611345499999997  7.8853802200000001
 11.1571570399999995  8.5896536000000001 11.5664875100000000
 10.6946601900000005 11.3660245599999996 13.7993006299999994
 11.4277890400000004 13.7159511999999992 16.3039540800000005
 11.8754392800000002 16.0919282400000014 17.9088520100000004
 11.5014382000000008 18.2523334300000002 20.3400721000000004
 10.6314953600000006 21.2162748100000016 -0.0588362500000000
 11.7612765100000001 -0.0633132700000000  2.6512822300000001
 11.5632773400000008  2.4391200199999998  4.6182117700000003
 13.6881286499999995  4.3994894200000001  8.2505976800000003
 12.7537669400000002  7.0781079499999997 11.0009150200000008
 13.2380787699999996  9.3652664399999992 13.7752342100000007
 13.0952930500000004 11.7490621199999996 15.8542352399999995
 13.4818167100000004 13.3556899799999993 18.5823374299999990
 13.8044179600000003 15.8854230399999992 20.2281286899999984
 13.6964309499999999 18.4024466099999984  0.4665999300000000
 13.9751521899999993 20.7737074200000009  2.0302277200000001
 13.5728549199999993  0.4062301400000000  4.4193497700000002
 13.7460903900000009  2.6261101400000002  6.2610604099999998
 15.3346743500000002  5.0991366899999999 11.2533394399999995
 15.3215569499999997  6.8097085100000001 13.2719254800000002
 15.5733990700000007  9.6721462500000008 16.4428249899999983
 15.4884670500000006 11.7938997899999993 18.7737052099999993
 15.5026778099999998 13.6346114200000006 21.2544140599999984
 15.3970074300000004 16.3248473099999991  0.0189807600000000
 15.9238691499999998 18.0190089799999988  2.5591822999999998
 15.7055433999999998 20.1273541700000003  4.4641824300000001
 15.5580372400000009  0.0106558300000000  6.3620852499999998
 15.9388927900000006  2.2125659400000002  8.4810313100000005
 18.3249471600000007  5.4156926199999997 13.8568408900000009
 17.9570698799999988  7.5571857700000002 16.5783330199999988
 18.0947954600000003  9.4310063799999995 18.6337531399999996
 17.9674575499999989 12.0314034000000003 21.2124148300000002
 18.0311814900000016 14.5792106799999992  0.5546612000000000
 17.2826568999999992 16.1533029500000005  2.3652359700000001
 17.8963649499999988 18.0817891599999996  4.8538820700000000
 18.4234930699999992 21.0686240799999993  6.5991213000000002
 17.8184487400000009 -0.4555474600000000  9.0454586399999997
 18.2807452999999995  2.8379397399999999 11.6383336300000000
 20.9369841600000015  4.7156203100000003 16.5884901700000000
 21.1283769300000017  7.4716642699999998 18.5374010499999997
 20.1059237499999988  9.7809915899999993 20.8239112999999989
 20.8967150299999993 11.4226460799999998  0.0884531500000000
 20.5930051799999987 14.2254836000000005  2.5870970400000002
 20.3322122000000007 16.2053832399999997  4.0033374899999998
 20.3681517499999991 18.3741758399999995  6.6975742800000004
 20.3075562699999992 20.6968692300000008  9.3793494699999993
 20.2332877800000013  0.0633054000000000 12.2082717100000000
 20.6214628100000006  3.0922868399999999 14.0064566300000006
  0.9904876200000000  4.3575384200000000 18.2746333800000009
  0.8872794400000000  6.8817062399999998 20.8615777599999994
  0.2597605300000000  9.1793842600000009  0.1032979100000000
  0.0130288400000000 11.4157352499999991  2.7034689200000002
  0.3086042000000000 13.9507650200000004  4.3030492100000002
  0.6356643600000000 16.0678140099999993  6.6425941300000000
  0.0365700100000000 18.2495283099999988  9.1788230700000000
  0.2352861000000000 20.9207061799999998 11.7745063200000004
 -0.0500023500000000  0.2449369400000000 13.9433310499999994
  0.5249242200000001  3.0219542200000000 15.7236505700000002
  2.5750102300000002  3.9545427100000001 20.6733464699999985
  2.6000711900000000  6.9640317200000004 22.7003714800000012
  2.6991389699999999  8.7901870800000008  2.0242345300000002
  2.9349069299999999 10.8721966000000005  4.2659461700000003
  2.2585295200000002 13.5468308499999992  7.0369380000000001
  2.3090512799999998 16.1759410499999987 10.0027230300000003
  2.8409449499999999 17.8350288399999997 11.3244393599999995
  1.6703437500000000 20.7694134599999991 14.1811935499999997
  2.3609802100000001  0.5341006800000000 15.6355578200000007
  2.9553511900000000  2.6246459400000002 17.7451529800000003
  7.2532658300000001  6.4205046399999999 -0.3601521100000000
  6.9353544400000002  8.6698118700000002  2.1786178700000001
  7.3273369199999996 11.3352352300000003  4.6016673299999997
  7.2053676700000002 14.0145387199999991  7.3130940300000002
  7.1343775200000001 16.3267389899999991 10.0673973599999993
  6.7382219599999997 18.1019984899999997 10.9555656399999997
  6.9200663100000002 20.0571196900000004 12.9192757799999995
  6.8307372900000001 -0.0344088300000000 15.4612324999999995
  6.5192217299999999  1.7768101100000000 17.2690178000000003
  7.2797582500000004  3.7284614000000000 20.0059082600000018
  9.0220050900000004  6.5683396299999997  2.8715059100000002
  8.9527128299999994  9.0726152199999994  4.4092717400000003
  8.7778652499999996 11.5720547400000005  6.8455166099999998
  9.6402293599999993 13.7259073100000002  9.3172833599999993
  9.0872469099999993 16.6238851799999985 11.0644458100000005
  8.6102883200000004 18.1705582899999989 13.7356745399999998
  9.0978445800000003 20.3556298399999989 15.8643120100000008
  8.7998425499999993  0.0170897700000000 17.9240105700000001
  8.5996042700000004  2.2560123399999998 20.3635455000000007
  8.6776630400000005  3.9360992000000001 23.1777851499999983
 11.3071471999999993  6.9047892800000001  4.3084421099999997
 11.4359262099999999  9.6246754699999997  6.7265015899999998
 11.3332955099999992 11.8623038800000007 10.3321019599999993
 10.9100306299999996 14.3988191499999996 11.5410692000000008
 11.7736788600000004 16.0641496199999985 13.6554202000000000
 11.7563281899999996 18.3656055800000004 15.3915468200000003
 11.3197562900000008 20.6896035100000013 17.7879057899999999
 10.9722296999999998 -0.1820347400000000 19.9884107899999997
 10.5262396999999996  2.0801565000000002  0.4155674200000000
 11.3255597600000009  4.3914331899999999  2.0233122099999998
 13.1715904699999999  6.9139384899999996  6.7209589300000001
 13.2402917099999993  9.4153665199999992  8.8256540799999996
 13.6613814199999997 11.2004387500000000 11.3535072100000001
 13.7720495900000000 13.3670465099999998 13.8944960799999997
 14.0274900099999993 15.7425938700000003 16.0014677799999987
 13.5318300800000006 18.8028315399999997 18.2399683400000008
 13.8221696699999992 20.4103755400000004 20.9371187100000000
 13.6291758900000008  0.4996941500000000 -0.3681403800000000
 13.8596596400000003  3.2304753000000002  1.5242500000000001
 13.5738923499999995  4.8573598200000001  4.5244020300000001
 15.7256424199999998  7.0969370899999999  8.5621985600000006
 15.9052778200000002  9.1784735000000008 11.7130655699999995
 15.8265700099999993 11.5416600799999998 13.7978077300000006
 15.8612973400000001 13.1207712300000008 16.7397928699999987
 15.2333239400000000 15.5662228400000000 17.6673738299999989
 15.6942908299999999 18.4250145399999994 20.5888067600000007
 16.3151707399999992 20.8200507899999998  0.1221238500000000
 15.6219286400000001  0.7524378200000000  1.9488489899999999
 16.1172347299999998  2.4942436300000002  4.4352355200000000
 15.8385849000000007  4.5833601799999997  6.8722387100000004
 17.9120810299999995  6.7918344199999998 11.1185828299999994
 17.8614291799999982  8.7019440600000006 14.1065703899999999
 18.1698589900000016 11.2046471200000006 16.0576006299999996
 18.2061770199999984 13.6611507499999991 18.2863887200000015
 18.0961102499999988 15.4849261600000006 20.6133108999999983
 18.2062158600000004 18.7122601300000007 -0.2967337100000000
 18.2621870500000014 21.0101962700000016  2.4027421499999999
 18.2922873199999998 -0.2119834900000000  4.2192387900000003
 17.9874583900000005  2.4451292499999999  6.7950061399999999
 18.0529229499999992  4.5780876900000003  9.3529745200000001
 20.0914610200000006  7.0497711900000004 13.7555020999999993
 20.6375456399999990  9.7662057099999995 16.2007336799999990
 20.5855913599999987 11.4412819300000006 19.0521996999999992
 20.6538852800000008 14.0885793199999991 21.2787985800000001
 19.9436166200000002 16.3541940200000013  0.5885558700000000
 20.7018344499999998 18.7644447399999983  2.3012718500000000
 20.6376562399999983 20.3175681099999998  4.7825943500000001
 20.2322457200000017  0.6140198600000000  6.8936820000000001
 20.1858739000000007  2.6187169899999998  9.2767625000000002
 19.9652444500000001  5.7439282499999997 11.9349480099999994
  0.0745961300000000  6.6949182800000004 15.8977903499999993
  0.8670012200000000  8.7710945099999993 18.3827810199999995
  0.3789755800000000 11.5200611399999993 20.3859318099999989
 -0.1751810400000000 14.3433420799999993  0.1441086200000000
  0.3286187800000000 16.3095719599999995  2.3251791900000001
  0.0202166500000000 18.0026006900000013  4.7964096600000001
  0.0138515300000000 20.4825641300000001  6.9917626400000001
 -0.5346507700000001  0.1538863900000000  9.6771989499999993
 -0.0024820800000000  2.3977244299999998 11.6900855200000002
  0.0869240300000000  4.9045801100000004 13.2328410900000009
  2.9417910200000001  6.5266224299999998 18.4206047999999996
  3.0908551300000000  9.4037518000000002 20.4710067000000002
  2.7336970699999998 11.4778534699999994  0.2394820400000000
  2.5788348399999999 13.9388039700000004  1.9596755699999999
  2.6424089700000000 15.6648044300000002  4.5426590500000001
  2.1136573900000002 18.1521341300000003  7.1512348899999996
  1.9732344799999999 20.0516508100000017  9.2026339000000004
  1.8867238399999999  0.2643765900000000 11.6295634099999994
  2.5315986300000000  3.0358791300000001 13.1365421799999993
  2.5284067900000000  4.8867933199999998 15.3341926500000003
  4.6750753500000002  5.8191582300000002 20.9266118600000013
  5.3609978299999996  9.3576164500000001 22.4327169600000005
  5.1006099799999998 11.9972285099999993  2.0567535499999998
  5.3941230600000001 13.7883968499999998  4.3883489400000002
  4.6228159900000003 15.8491963299999998  7.1491438199999999
  4.4886108499999997 17.8882185999999983  9.3057089600000005
  4.4892298200000003 20.4953073799999999 11.4322873400000002
  4.4344847800000000  0.2583586100000000 13.3994905000000006
  5.1022789299999998  2.7052512300000000 14.8877606399999998
  4.7972121200000002  3.9110281699999998 18.2800626500000014
  8.6974696700000003  8.4646463199999999 -0.6068441600000000
  8.8964984699999992 11.2488474000000007  1.9283601800000001
  8.5369651700000002 13.8524126299999999  4.1097670099999997
  8.7919108000000001 16.8583359799999997  7.0720500199999998
  8.7521838499999998 18.4971951300000015  9.0117505399999995
  9.0847814400000004 20.2336118099999993 10.2998202499999998
  8.8445918999999993 -0.0485190100000000 13.4326471699999992
  8.6951153800000007  2.1845938500000002 15.7648593100000003
  9.4379821199999991  4.0713074200000001 17.8159233999999991
  8.7361549499999995  6.2173106300000001 20.3949824500000005
 10.6182873999999998  8.8976233499999999  1.7277933200000000
 11.0611075999999997 11.8923535600000001  3.7601147400000001
 10.7618897499999999 13.7096659800000005  6.6521635000000003
 11.4412309699999994 16.3594690900000010  9.3207621300000003
 11.7876485100000004 18.2472278000000010 11.5021775200000000
 10.9633031600000006 20.6287623999999994 13.7438464400000004
 10.9565280000000005 -0.0264946000000000 15.2195557499999996
 11.1527138600000004  1.5744271599999999 17.6473899199999984
 10.5692040899999995  4.5572121200000000 20.1419147100000018
 11.1657556899999992  5.7564066100000000 22.6057421599999984
 13.4659237399999991  8.6843748699999992  4.6701027499999999
 13.2680916999999994 11.0966667700000006  6.7194889000000000
 13.4913519500000003 13.7468944099999995  8.6786755200000005
 14.3541586199999998 15.7776006300000002 10.8715292800000007
 13.6842088200000003 18.3814392600000005 14.0184775100000003
 13.3998329999999992 20.9376288899999992 16.5345917299999989
 13.3462388399999998 -0.1291772600000000 18.7829105600000013
 13.0087731899999994  2.1352102300000002 20.2397366000000005
 12.9406799199999991  4.7441483599999996 -1.0190705099999999
 13.2387549399999997  6.4700490600000000  1.7518744200000000
 15.7130720900000007  8.6036791600000004  6.5638150800000004
 16.0177007200000006 11.2215931199999996  8.8329165700000001
 16.1331425899999985 12.3713143900000002 11.1020759099999999
 16.6227461199999986 15.1737670300000005 14.3204113700000004
 16.1402706100000017 17.8451942300000006 15.9080814900000007
 16.5603523700000004 20.3942919700000012 18.7240208000000017
 16.3271778000000012  0.0174026000000000 20.2385805400000010
 15.2888523700000007  2.6609486200000001 -0.6305613799999999
 15.5207347999999996  5.3144161600000004  1.9047233200000000
 15.7087901399999996  6.3431687099999996  4.8270404800000000
 17.6247398599999983  9.1388188899999996  9.0130740700000000
 17.6912749699999985 11.0635251500000003 11.4382914899999992
 18.6339306799999989 13.2266748799999991 13.5752977900000005
 18.1694448800000004 15.5681232600000001 16.1863229400000002
 18.2855720099999992 17.8063504899999998 18.3628828900000016
 18.6244249800000006 21.2931496699999983 20.2114262899999986
 18.1519836800000007  0.4490039300000000 -0.2160713500000000
 17.9051113999999991  3.1093393699999998  1.5253887200000000
 17.7043257400000016  4.6892753599999999  4.3665689700000003
 17.8638229499999994  6.6776924099999997  6.5786510099999997
 19.9926010199999986  8.9243247300000004 11.3532819699999994
 20.5520068500000015 11.0791668800000007 13.6778826200000001
 20.1179763899999990 13.2293145699999997 16.1797824199999987
 20.5475967200000014 15.7350549199999996 18.9739304100000012
 20.9290691700000018 18.1536514199999992 20.4949282100000012
 20.5690649000000008 20.3398276500000001 -0.3721639200000000
 20.0185921200000010  0.3751567900000000  1.6552979299999999
 20.2048157999999987  2.2990248499999999  4.0803652899999996
 20.5943411300000001  3.8569667999999999  6.5027376099999996
 20.1451484699999988  6.7784224899999996  8.7721854599999993
  0.2856482800000000  8.4992622000000004 13.5763746300000001
  0.1016660400000000 10.9610841499999996 15.9727143599999994
  0.0683958500000000 13.9541045199999996 18.2929582800000006
 -0.2127839800000000 15.5522893199999999 20.7203994400000013
 -0.3441863000000000 18.3204207100000005  0.6290832800000000
 -0.0432494100000000 20.8810026999999998  2.1152943899999999
 -0.2188710900000000 -0.0675240300000000  4.2992835700000001
 -0.5689966600000000  2.3037327799999998  6.5872367100000000
 -0.7774914500000000  4.5198142800000003  9.3671236600000007
 -0.1426237300000000  6.7789729999999997 11.3276356200000006
  2.1742605899999998  8.8777016300000007 16.2471170700000016
  2.4504040100000002 11.4787718900000009 18.3028705900000013
  1.9456521099999999 13.1831293800000005 20.7051648700000008
  2.4595602599999999 16.1973736099999996  0.2204141600000000
  2.0896774100000002 18.1951578400000002  2.7213835799999999
  1.7720303300000000 20.4143867000000014  5.0771329700000001
  1.9834953399999999 -0.1649401200000000  6.8793840099999999
  2.0714195200000001  2.3631770599999999  8.8723216499999999
  2.5673475400000001  4.6033233700000000 10.6940224700000002
  2.9067512500000001  6.6470850300000004 13.9678202099999993
  4.4015555099999997  8.3469639999999998 18.1116437999999995
  4.7719927499999999 11.1799652199999997 20.3959533099999994
  4.9356367900000002 13.4525242800000004 -0.5804102700000000
  4.7433303300000000 15.9973911399999995  2.7783850800000001
  4.0544524900000001 18.0461983299999993  4.8180961800000004
  3.8627094999999998 20.3798629499999997  7.2263592900000004
  4.4308662900000000 -0.1525333600000000  8.9606033800000002