Li                                      
   1.00000000000000     
    20.6400000000000006    0.0000000000000000    0.0000000000000000
     0.0000000000000000   20.6400000000000006    0.0000000000000000
     0.0000000000000000    0.0000000000000000   20.6400000000000006
   Li
   432
Direct
  0.9758492156007748  0.0109539181201583  0.9994079951550390
  0.8833459612403090  0.0674738934108561  0.0856130329457372
  0.8345687747093038  0.1645855750969005  0.1937556259689899
  0.7743091962209334  0.2546542989341063  0.2387905232558154
  0.6733413890503854  0.3447107267441893  0.3383278682170570
  0.5735424588178262  0.4211356022286807  0.4275815445736413
  0.4914567650193788  0.4858014258720900  0.5418915930232586
  0.3881801400193794  0.5521531913759716  0.5740081191860469
  0.3340769089147315  0.6668037422480637  0.6636808662790727
  0.2433053900193798  0.7654427645348818  0.7223623759689914
  0.1583502170542630  0.8423418570736416  0.8288816865310054
  0.0652785944767444  0.9173701303294592  0.9009084849806186
  0.0799668158914741  0.8852427645348868  0.0790725717054244
  0.9865489849806224  0.0143545445736422  0.1447725784883716
  0.9077640876937991  0.0495496724806230  0.2722651613372093
  0.8426076036821684  0.1686389520348825  0.3154152238372063
  0.7511036535852682  0.2342712776162799  0.4112957170542657
  0.6589407664728668  0.3367536724806186  0.4936772262596918
  0.5658551177325606  0.4151582776162783  0.5869689132751930
  0.4869334408914696  0.5292321051356623  0.6509270537790712
  0.3976275881782954  0.5847122325581395  0.7314285804263534
  0.3057233919573648  0.6480553793604642  0.8085047456395316
  0.2592135717054234  0.7435377921511659  0.8696487911821720
  0.1689469147286786  0.8240910750969022  0.9805156279069749
  0.1710072916666689  0.8187171143410836  0.1690048284883687
  0.0603150668604684  0.9227749941860495  0.2435442538759673
  0.9879461424418636  0.9696589888565867  0.3537749980620148
  0.9085974045542642  0.0922562039728660  0.3994398144379829
  0.8189457558139566  0.1687794815891479  0.5032557374031015
  0.7491032766472898  0.2726829389534871  0.5801633100775163
  0.6615243091085290  0.3435568163759655  0.6754182940891482
  0.5788608115310083  0.4456439258720906  0.7551572688953456
  0.4644396342054264  0.5212761317829475  0.8135842679263590
  0.3841816928294577  0.5958371821705413  0.9092102567829485
  0.3191221967054290  0.6819051448643378  0.9749210649224835
  0.2416812170542642  0.7463247475775177  0.0639795305232553
  0.2370890406976756  0.7514809210271309  0.2828891739341088
  0.1473544893410832  0.8618752432170567  0.3205082422480601
  0.0675512601744188  0.9105712640503896  0.4280993808139542
  0.9818020043604676  0.0071402587209306  0.4827279762596888
  0.9059300310077489  0.1063985663759723  0.5798557558139521
  0.8248839859496115  0.1786245106589135  0.6598632349806195
  0.7412715227713207  0.2744216845930225  0.7696294200581377
  0.6484726308139557  0.3787769510658947  0.8396808347868188
  0.5720531366279076  0.4530083982558111  0.9289390726744173
  0.4882139074612368  0.5594097902131807  0.0003143895348856
  0.3928777209302297  0.6039846807170548  0.0900358478682151
  0.3258982257751910  0.6945500237403124  0.1975471409883696
  0.3241141211240333  0.6685616763565889  0.3713305978682158
  0.2437280634689927  0.7916090959302338  0.4209689147286824
  0.1401765159883723  0.8664905111434109  0.5173279045542643
  0.0440572688953509  0.9317262902131773  0.5664963217054293
  0.9774901153100757  0.0176906002906989  0.6698679132751906
  0.8904289849806233  0.1130952679263544  0.7638481414728702
  0.8065774447674414  0.1824340203488362  0.8471571400193767
  0.7378049820736408  0.2986364045542658  0.9326220436046526
  0.6596491729651177  0.3328609253875996  0.0244540460271310
  0.5672708929263592  0.4429883081395332  0.0465712635658946
  0.4864582499999983  0.5013236976744153  0.1744269437984514
  0.4411946240310058  0.6267288580426325  0.2736242630813948
  0.4270706797480628  0.5486701143410855  0.4564592577519377
  0.3297381017441836  0.6634974471899255  0.4955894384689898
  0.2515248604651177  0.7537972834302309  0.5791569079457375
  0.1425511719961250  0.8531380872093024  0.6421144006782953
  0.0530836429263530  0.9223113575581365  0.7344610833333363
  0.9811230460271290  0.0215297359496134  0.8038368091085246
  0.8777454326550398  0.0772345077519390  0.9236169748062011
  0.8465714515503890  0.1698070876937976  0.0011063498062001
  0.7383506836240343  0.2318147117248088  0.1036550096899234
  0.6465422451550396  0.3399898517441855  0.1848766124031016
  0.5526808304263540  0.4265395973837229  0.2667034055232591
  0.4935390256782952  0.4971672030038761  0.3649241666666683
  0.1028158798449610  0.0765135067829448  0.9120769791666632
  0.9718890440891457  0.1404984791666664  0.0038450295542631
  0.9263025300387611  0.2368937974806187  0.1031215532945708
  0.8331389316860438  0.3394972243217040  0.1618907480620138
  0.7674131492248080  0.4202343711240317  0.2571051206395367
  0.6621697446705426  0.4971410978682158  0.3237877156007727
  0.5936021560077549  0.5769212679263589  0.4591405620155058
  0.4932368861434142  0.6407378536821682  0.5124652364341102
  0.4163260121123997  0.7366161395348811  0.6002761724806192
  0.3461343997092996  0.8334248527131791  0.6596208546511662
  0.2249961196705428  0.9104783468992252  0.7329448129844991
  0.1491644011627926  0.0037686332364331  0.8266180518410877
  0.1539924355620172  0.9777569302325588  0.0096810300387631
  0.0847437558139532  0.0925221293604679  0.1162705489341107
  0.9846057020348837  0.1485131593992222  0.1866847228682147
  0.9095272238372090  0.2509367940891494  0.2554344786821687
  0.8370942393410843  0.3411098759689892  0.3398641933139501
  0.7491797199612407  0.4223939781976753  0.3941359752906948
  0.6808374951550391  0.4845264777131817  0.4984943779069795
  0.5890685896317862  0.5786011870155008  0.5745483372093005
  0.4865118783914752  0.6528472538759686  0.6526133425387570
  0.4147564510658910  0.7401856109496094  0.7475981845930235
  0.3425367374031012  0.8399849811046494  0.8201097940891486
  0.2561518066860486  0.9208905935077496  0.8902014365310080
  0.2654008284883744  0.9242682000968969  0.0823733260658912
  0.1604432587209317  0.9970701153100805  0.1669517030038747
  0.0781244835271337  0.0673412228682153  0.2723405087209301
  0.9835718217054250  0.1700332655038750  0.3356401027131781
  0.8970720566860493  0.2388070193798484  0.4048667456395378
  0.8291455053294570  0.3366532122092991  0.4799481056201529
  0.7478312315891458  0.3986767485465137  0.5581313895348856
  0.6529978764534903  0.4894068202519364  0.6579020600775181
  0.5756571133720954  0.5629864423449646  0.7383005547480650
  0.4814081593992228  0.6326327238372116  0.8327790697674402
  0.4178547412790721  0.7327900256782911  0.8905431569767472
  0.3330588435077502  0.8258609181201564  0.9795366579457365
  0.3487585077519384  0.8202729815891487  0.1295851414728659
  0.2541549830426391  0.9031933333333342  0.2598486865310079
  0.1812169772286794  0.9779833241279050  0.3640259544573610
  0.0937600595930235  0.0858024549418630  0.4110832078488400
  0.0019395038759669  0.1445909961240304  0.5008964869186059
  0.9275422897286845  0.2525441453488355  0.5689943275193770
  0.8279032572674438  0.3227258294573616  0.6759676056201585
  0.7174441642441849  0.4087815770348868  0.7265353561046481
  0.6764418507751913  0.4959063323643420  0.8388802592054247
  0.5965055901162799  0.5895358439922447  0.8857324215116265
  0.4979191361434090  0.6618981148255827  0.9712551065891475
  0.4144720615310078  0.7402770373061998  0.0615895586240285
  0.4165827277131768  0.7678405033914757  0.2729628512596918
  0.3466710518410849  0.8227052383720945  0.3065742451550406
  0.2719186375968974  0.9278730406976763  0.4299958783914732
  0.1512447994186061  0.0045942810077548  0.5073789476744182
  0.0779648376937985  0.0814910271317828  0.5604969752906968
  0.9888082877906967  0.1856045310077548  0.6480968968023291
  0.9072914670542644  0.2259432979651166  0.7546562577519396
  0.8312902262596893  0.3565094709302343  0.8362705164728652
  0.7708514481589148  0.4096072848837196  0.9501245634689894
  0.6631766768410827  0.5267187306201535  0.9959866463178315
  0.5810412824612428  0.6005782974806166  0.1003279389534910
  0.5068887199612391  0.6712816128875971  0.1771027107558112
  0.5076903052325576  0.6853923580426340  0.3513862015503904
  0.4195202650193792  0.7512285789728708  0.4242957480620149
  0.3573134079457390  0.8479899583333363  0.5094997519379874
  0.2439725828488406  0.9159753624031026  0.5765214064922475
  0.1383265983527124  0.9942630804263572  0.6601901216085295
  0.0851964273255845  0.1144624893410864  0.7487271904069743
  0.9888770586240341  0.1583693643410840  0.8719649079457383
  0.9170520479651145  0.2619144118217065  0.9077126773255841
  0.8630642936046513  0.3293527592054275  0.0222241947674391
  0.7497050058139507  0.4255457369186075  0.0860963624030973
  0.6530959738372104  0.5016829350775183  0.1743790896317847
  0.5754841889534887  0.5842618958333361  0.2524651477713178
  0.1656678817829444  0.1451605760658907  0.8167315397286856
  0.0771902223837202  0.2212417897286798  0.9424103740310059
  0.0379308246124026  0.3161013430232558  0.0049678173449621
  0.9630035421511636  0.4088489437984464  0.0998926768410868
  0.8586971468023279  0.5148877223837189  0.1435069355620158
  0.7595014520348826  0.5637616695736440  0.2475923255813939
  0.6516806739341092  0.6457778110465142  0.3392411298449645
  0.6096133347868218  0.7507922175387591  0.4489204103682169
  0.5005991085271333  0.8291230150193769  0.5063326540697659
  0.4427810411821724  0.9113474641472834  0.5965174413759655
  0.3589699699612368  0.0047484006782952  0.6765447635658930
  0.2436150348837174  0.0918284069767452  0.7310844757751909
  0.2480835029069794  0.0738512364341091  0.9064934200581405
  0.1601547572674420  0.1751322877906958  0.0292493779069787
  0.0735038667635664  0.2390758352713149  0.1202085857558117
  0.9823607165697652  0.3210477291666649  0.1742149113372093
  0.9173120450581393  0.4096608580426349  0.2588995411821671
  0.8235508173449588  0.5049741366279079  0.3262598231589138
  0.7297054689922504  0.5501392708333341  0.4129771385658927
  0.7062915697674441  0.6439471395348804  0.5122333062015514
  0.5990265629844984  0.7503509321705408  0.5777780872093032
  0.5078424970930229  0.8222438536821670  0.6556291666666638
  0.4596790983527157  0.9182329563953502  0.7176928871124062
  0.3478888401162763  0.9830919990310107  0.7969598236434123
  0.3499322291666687  0.0095973643410829  0.9637007364341059
  0.2482916191860483  0.0705294050387621  0.0691607344961227
  0.1829553212209305  0.1510425712209269  0.1856607926356588
  0.0675873444767419  0.2517750838178330  0.2503647223837220
  0.9541885111434141  0.3160447403100761  0.3493014617248065
  0.9002600397286855  0.4439262156007757  0.4056568531976765
  0.7979239408914722  0.4983223875969003  0.4887279530038739
  0.7467560062984475  0.5717182558139555  0.5883512432170548
  0.6598235775193828  0.6484286913759689  0.6804811715116301
  0.5647118270348841  0.7538362519379831  0.7454992655038737
  0.5052742558139514  0.8219557480620168  0.7954916303294581
  0.4311769893410826  0.9001262165697668  0.9142336724806199
  0.4114047538759706  0.9174983522286837  0.1054617073643414
  0.3404002519379858  0.0134728028100781  0.1518299607558120
  0.2515139297480644  0.0634089990310045  0.2662185460271331
  0.1777652737403130  0.1872100557170526  0.3190847015503877
  0.0870777063953483  0.2709019186046504  0.4179538498062030
  0.9889469840116263  0.3572788842054280  0.4882330581395351
  0.8994879588178293  0.3941447073643403  0.5796269190891508
  0.8218684975775190  0.5013500867248055  0.6463400484496091
  0.7445872277131755  0.5669475668604633  0.7735538604651140
  0.6654656734496101  0.6842112044573625  0.8227277926356606
  0.5487335421511617  0.7418984210271304  0.9044570518410850
  0.4873172495155060  0.8349746419573663  0.9926378624031003
  0.5193973963178280  0.8375563483527131  0.1807596937984499
  0.4350915983527130  0.9235012194767407  0.2537707311046518
  0.3332383856589161  0.9796689399224832  0.3091162495155046
  0.2768323284883749  0.0885885828488355  0.4228550266472837
  0.1831588430232571  0.1683867034883733  0.4916915184108532
  0.0837852238372108  0.2618665513565901  0.5353131322674400
  0.0143622151162788  0.3252725615310084  0.6496044268410870
  0.9194938909883703  0.3956449563953512  0.7625909297480646
  0.8411021438953483  0.4628107703488382  0.8446244927325566
  0.7687305532945743  0.5921627407945707  0.9200939656007776
  0.6490313905038789  0.6735712940891503  0.0047732790697665
  0.5655467814922446  0.7366995368217033  0.0823388735465116
  0.5709206967054286  0.7538487354651195  0.2620326632751926
  0.5202603502906982  0.8214671211240301  0.3169542412790705
  0.4482798357558124  0.9132940838178314  0.4185222538759703
  0.3614204152131748  0.9899857693798424  0.5078528362403105
  0.2555876778100767  0.0798092882751931  0.5847690227713187
  0.1641468163759683  0.1694821293604676  0.6241364922480628
  0.0853677810077542  0.2498923575581387  0.7615602369186050
  0.0201052950581371  0.3429755721899213  0.8489951618217049
  0.9516957771317820  0.4051764282945740  0.9422869534883702
  0.8440193851744198  0.4918073754844983  0.0205901191860463
  0.7787783115310063  0.6083766080426329  0.0827832834302313
  0.6811651254844975  0.6566926269379820  0.2002178716085297
  0.2458531259689920  0.2615832088178323  0.7297605319767442
  0.1627942126937967  0.3317997369186045  0.8362537301356596
  0.1148199874031022  0.4104457916666675  0.9117595876938012
  0.0428129263565893  0.5217753197674426  0.0269149500969021
  0.9357573154069740  0.6024085474806213  0.0809403376937965
  0.8633293008720955  0.6974282688953508  0.1704912674418608
  0.7426212122093006  0.7311483551356588  0.2509776167635636
  0.6874232107558171  0.8287632059108532  0.3611614161821706
  0.6076383764534867  0.9006418333333315  0.4406788570736424
  0.5076988406007743  0.9862212688953491  0.5006789970930257
  0.4381992664728713  0.0942175121124009  0.5945319336240331
  0.3479839975775221  0.1776520508720907  0.6583589287790730
  0.3433039883720923  0.1849423880813958  0.8123403347868248
  0.2479795101744173  0.2281784597868182  0.9017470891472854
  0.1730720169573630  0.3205273788759655  0.0209274723837183
  0.0959513725775167  0.4131751860465087  0.1058091933139522
  0.9850191584302337  0.5269517877907006  0.1697066283914737
  0.9270091133720939  0.5763858202519359  0.2680768938953477
  0.8143133512596918  0.6636058929263555  0.3287331593992278
  0.7580352742248095  0.7435276511627933  0.4166003725775198
  0.6964792693798429  0.8336532761627922  0.5471837417635683
  0.5797508410852714  0.9248691128875990  0.5875795557170562
  0.5462707722868245  0.0205323318798420  0.6853545121124043
  0.4329134844961260  0.1074095838178266  0.7387184442829451
  0.4173664917635662  0.0809238769379874  0.9311922562984520
  0.2999565528100803  0.1904889694767462  0.0047208774224785
  0.2467554302325610  0.2506550465116248  0.1126191918604675
  0.1760369530038730  0.3178911211240276  0.1709557306201575
  0.0734254384689947  0.4186654074612406  0.2473681099806200
  0.0152882582364313  0.4747612315891487  0.3513323619186082
  0.9196592475775205  0.5537880489341092  0.4136838173449604
  0.8524777674418615  0.6389629602713143  0.4937153522286835
  0.7656235024224785  0.7290399321705436  0.5736505029069789
  0.6733753406007779  0.8336780324612434  0.6742815813953484
  0.5872617509689917  0.9314672940891455  0.7541805717054260
  0.4949852354651156  0.0147497335271325  0.8379319714147258
  0.5103623953488352  0.9889397364341050  0.0018419898255786
  0.4240532020348837  0.0875510595930251  0.0646289331395380
  0.3336589297480614  0.1323145339147302  0.1813826371124065
  0.2693844602713185  0.2477035416666666  0.2308224035852717
  0.1598574927325558  0.3360405707364365  0.2871030697674399
  0.0847093217054251  0.4073102291666686  0.4029953197674416
  0.0118846157945711  0.4783294815891495  0.5120350174418604
  0.9338893081395341  0.5734755067829482  0.5686193851744150
  0.8152059714147271  0.6501333657945736  0.6677977030038775
  0.7617943367248046  0.7522278745155049  0.7523483173449605
  0.6745431981589149  0.8316443207364372  0.8135775712209323
  0.5877724607558150  0.9031120174418632  0.8813936705426357
  0.5635715019379859  0.8819155755813952  0.0755570353682202
  0.5134590058139565  0.0193322688953472  0.1417121545542628
  0.4529461298449604  0.1078241763565870  0.2696983803294586
  0.3532164849806207  0.1827106279069781  0.3241035465116298
  0.2455275179263552  0.2490352218992271  0.3763733735465138
  0.1882262504844974  0.3639342015503857  0.4870636841085272
  0.0757130222868199  0.4203492558139530  0.5881314665697701
  0.9781013517441863  0.4497841560077518  0.6690190208333320
  0.8862099263565923  0.5705318483527151  0.7575435663759720
  0.8370037374031014  0.6801977412790663  0.8193747771317845
  0.7704702834302353  0.7363138207364344  0.9137223406007777
  0.6406218657945715  0.8244019874030997  0.9765818386627885
  0.6563912015503846  0.8215414622093036  0.1803743895348831
  0.6160105305232548  0.9231263280038746  0.2494610077519397
  0.5327495203488368  0.9865647979651158  0.3431468585271347
  0.4165312165697657  0.0741318711240311  0.3889040993217066
  0.3675382703488381  0.1868681758720925  0.4780707005813980
  0.2701680009689937  0.2249454500968966  0.5442555813953476
  0.1783632790697709  0.3120209229651181  0.6426577577519410
  0.1056785227713206  0.4107924011627873  0.7341002931201572
  0.9977656477713168  0.4816311787790681  0.8383276264534913
  0.9091671288759713  0.5744123929263552  0.9085943071705458
  0.8492299864341106  0.6529369462209331  0.9837993091085266
  0.7402705193798482  0.7456298464147295  0.0699894190891470
  0.3118783531976774  0.3296646574612367  0.6553580111434130
  0.2384766235465108  0.4106210033914763  0.7363618347868197
  0.1696223667635692  0.4987594578488341  0.7961134074612417
  0.0684092810077530  0.5930180353682175  0.8951065329457393
  0.0158578110465086  0.6586348338178283  0.9793375857558146
  0.9023987843992245  0.7638427756782917  0.0831617659883719
  0.8203685397286833  0.8140019670542600  0.1901753144379867
  0.7503551065891472  0.8867707340116269  0.2607683459302308
  0.6791327771317839  0.0044965736434079  0.3501867034883688
  0.6112892330426334  0.0977224147286790  0.4374214743217024
  0.4914612795542652  0.1394548347868252  0.4960642926356584
  0.4598183386627923  0.2591361656976758  0.5806416710271307
  0.4052394423449641  0.2805336923449602  0.7616112737403071
  0.2909396342054293  0.3381973997093013  0.8619205901162772
  0.2415816710271343  0.4188280242248084  0.9352574646317819
  0.1792441114341088  0.5292392194767430  0.0245306453488396
  0.1209390881782966  0.6088471225775223  0.1128488624030979
  0.9765990188953495  0.6899602693798457  0.1699066027131764
  0.9500414006782947  0.7390701589147284  0.2896335101744185
  0.8099198289728662  0.8252821593992223  0.3385144026162763
  0.7687484375000011  0.9101873648255818  0.4328157349806219
  0.6722449811046545  0.0072328808139517  0.5098055828488341
  0.5962533478682204  0.1141632286821732  0.5920808468992220
  0.5243013013565871  0.1895306429263570  0.6898042940891500
  0.5059678134689918  0.1675954941860454  0.8646420271317794
  0.4095893803294572  0.2499692873062003  0.9221049656007736
  0.3219609791666684  0.3372247713178282  0.0125985930232559
  0.2521809186046511  0.4303892708333308  0.1089179152131763
  0.1851241826550378  0.4997811400193797  0.1751958657945707
  0.0794061918604640  0.5808777945736452  0.2218316269379841
  0.0328458817829471  0.6374661065891445  0.3451233410852694
  0.9417022422480628  0.7173343120155025  0.3977830474806225
  0.8471468401162809  0.7982351124030984  0.5297042940891501
  0.7778694462209330  0.9424516589147274  0.6027866681201530
  0.6727224098837183  0.0276528851744189  0.6604967054263540
  0.6096875552325614  0.0930098110465138  0.7660068512596894
  0.6066505469961214  0.0719762635658938  0.9232216821705421
  0.5031403018410856  0.1745784345930232  0.9874665552325581
  0.4122255857558130  0.2579063958333307  0.0890699210271322
  0.3316986235465151  0.3283431279069760  0.1679427015503876
  0.2426020639534912  0.4112287839147299  0.2322087533914754
  0.1617630310077516  0.4977040562015489  0.3280063885658890
  0.1059677417635640  0.5426140261627879  0.4326485692829465
  0.0206659404069782  0.6474664864341051  0.4987592277131796
  0.9191410072674415  0.7046912437015536  0.5662142330426363
  0.8220778173449617  0.8228189336240277  0.6795635901162811
  0.7338408672480625  0.9331691695736453  0.7300217567829463
  0.6543827175387591  0.9935114142441890  0.8163243938953499
  0.6717599374999992  0.9679886414728713  0.0185779491279092
  0.5903768120155064  0.0854279433139524  0.0735979384689927
  0.5291861409883722  0.1741132499999978  0.1711795746124025
  0.4299034481589175  0.2673631627906943  0.2462542645348833
  0.3586223265503889  0.3284788289728695  0.3295683207364348
  0.2478272800387629  0.3887280542635665  0.3746038265503842
  0.1852219970930236  0.4670364898255812  0.5075901216085299
  0.0833268565891458  0.5659402630813943  0.5929640121124038
  0.9852667713178320  0.6427639336240318  0.6806891240310051
  0.9321627461240283  0.7532560891472855  0.7362044966085293
  0.8387971768410836  0.8465439273255839  0.8281935799418605
  0.7235368817829482  0.9192432625969005  0.8938608687015517
  0.7551695552325555  0.8991864825581359  0.1069997432170524
  0.6722362112403104  0.9947968420542637  0.1739910111434142
  0.5879690179263548  0.0953915213178291  0.2499417020348815
  0.5112579752906967  0.1750631652131815  0.3537722238372112
  0.4063810455426378  0.2556562843992225  0.4137987645348815
  0.3356125964147267  0.3218012931201528  0.4946664215116314
  0.2558628522286810  0.3993331482558133  0.5685100595930237
  0.1781233410852678  0.4894571216085239  0.6495313812984520
  0.0618681763565903  0.5802696845930200  0.7061456468023266
  0.9856417369186019  0.6397039098837212  0.8092233580426367
  0.9237492238372127  0.7707633599806201  0.9067623299418628
  0.8202822378875965  0.8479883275193814  0.9955963938953474
  0.4043942504844935  0.3875618769379869  0.5874993657945708
  0.3225967340116256  0.4862213386627872  0.6727782088178316
  0.2310568609496144  0.5799044922480618  0.7143556259689916
  0.1543491157945738  0.6588603972868228  0.7864421409883704
  0.0921472262596907  0.7518693076550420  0.9116769345930251
  0.9808075668604630  0.8439023425387617  0.9990569481589162
  0.9087453779069747  0.9119622388565887  0.0999527713178310
  0.8147751734496111  0.9936703343023225  0.1916819995155024
  0.7660961046511616  0.0827379433139512  0.2787275644379861
  0.6842835092054287  0.1556910794573625  0.3294801482558114
  0.5823244641472840  0.2603972969961248  0.4071275639534875
  0.5026529820736414  0.3217037766472899  0.5057703260658926
  0.4939729374999970  0.3551969927325587  0.6929307606589177
  0.4162803425387622  0.4144928294573660  0.7604745852713179
  0.3361320247093005  0.5225967470930257  0.8250501923449605
  0.2481448236434076  0.5696418604651186  0.8948361884689930
  0.1887038076550382  0.6768344190891469  0.9696740208333310
  0.0704525130813920  0.7378488367248082  0.0781231792635637
  0.9929748575581385  0.8195397800387596  0.1782855896317841
  0.9236896560077525  0.9169241157945720  0.2326633769379853
  0.8520541894379861  0.9985936405038771  0.3334467814922490
  0.7483099777131770  0.0873487374030972  0.4379440305232549
  0.6902216022286822  0.1907833590116255  0.4920414772286819
  0.5831864874031041  0.2503374210271332  0.5755993032945739
  0.6020708512596897  0.2613256225775160  0.7582493798449619
  0.5020430077519364  0.3413833701550359  0.8416573749999969
  0.4015876952519406  0.4272815004844972  0.9269928657945741
  0.3197526298449631  0.5196277819767445  0.0084720281007762
  0.2452582921511635  0.6290623963178277  0.0916557427325557
  0.1672910004844965  0.7033821453488400  0.1860100717054252
  0.0727334660852748  0.7665276724806205  0.2535463716085289
  0.9885878987403132  0.8230105440891506  0.3543270978682145
  0.8991488149224836  0.8847925440891444  0.4144983357558161
  0.8557302383720895  0.0216414568798484  0.5052278265503887
  0.7605473783914718  0.1147321497093046  0.5740217543604658
  0.6904261051356571  0.1808699006782959  0.6630292621124028
  0.6753340799418623  0.1698759912790706  0.8532983725775196
  0.5923706351744187  0.2819598740310099  0.9224790029069752
  0.4801832873062040  0.3180942994186040  0.9867761952519345
  0.4182360014534865  0.4183084210271346  0.0914317577519412
  0.3215102572674411  0.5347759636627885  0.1901210813953469
  0.2417975629844946  0.5979480770348857  0.2600204510658912
  0.1629305663759695  0.6717751288759715  0.3417148774224827
  0.0797777708333314  0.7742363488372064  0.4225881870155064
  0.9616077204457341  0.8415157185077504  0.5087111749030981
  0.9001420145348860  0.9343549840116268  0.6044150232558110
  0.8448692708333354  0.0417408192829427  0.6902931768410880
  0.7558881957364321  0.1042718183139542  0.7634741162790704
  0.7272152141472858  0.0830427902131774  0.9352993202519357
  0.6750462955426357  0.1666299481589135  0.0037263318798466
  0.5727767824612400  0.2532564849806178  0.0905248376937990
  0.5065829835271316  0.3328623827519408  0.1610555024224780
  0.4100122335271337  0.4411235348837224  0.2396932214147256
  0.3152654917635687  0.5032045770348859  0.3347203347868231
  0.2388525242248036  0.5837805004844938  0.4150844515503849
  0.1524134103682186  0.6674976836240276  0.5007939423449628
  0.0515186094961209  0.7617725285852686  0.5869502640503867
  0.9613513895348831  0.8338633866279039  0.6664450765503886
  0.8949221230620168  0.9392319559108557  0.7250935813953490
  0.8149392950581387  0.0077354278100756  0.8295211870155015
  0.8095364704457353  0.9815368599806220  0.0186615479651167
  0.7320543919573623  0.0845946821705397  0.0772834471899202
  0.6801567073643398  0.1626553183139521  0.1813376090116279
  0.6051495421511603  0.2432243585271294  0.2724111090116281
  0.4940947887596892  0.3423017461240292  0.3386990014534916
  0.4142178972868251  0.3890309554263567  0.4298889626937950
  0.3305577340116272  0.4611360906007747  0.4817058449612404
  0.2657737751938001  0.5713625440891477  0.5441038091085275
  0.1856356366279073  0.6606392456395369  0.6331004200581418
  0.0738502558139515  0.7368872868217053  0.7273826753875952
  0.9971493115310111  0.8376765809108520  0.8048597315891470
  0.9309399980620157  0.9186709152131769  0.8972676540697648
 
  0.00000000E+00  0.00000000E+00  0.00000000E+00
  0.00000000E+00  0.00000000E+00  0.00000000E+00
  0.00000000E+00  0.00000000E+00  0.00000000E+00
  0.00000000E+00  0.00000000E+00  0.00000000E+00
  0.00000000E+00  0.00000000E+00  0.00000000E+00
  0.00000000E+00  0.00000000E+00  0.00000000E+00
  0.00000000E+00  0.00000000E+00  0.00000000E+00
  0.00000000E+00  0.00000000E+00  0.00000000E+00
  0.00000000E+00  0.00000000E+00  0.00000000E+00
  0.00000000E+00  0.00000000E+00  0.00000000E+00
  0.00000000E+00  0.00000000E+00  0.00000000E+00
  0.00000000E+00  0.00000000E+00  0.00000000E+00
  0.00000000E+00  0.00000000E+00  0.00000000E+00
  0.00000000E+00  0.00000000E+00  0.00000000E+00
  0.00000000E+00  0.00000000E+00  0.00000000E+00
  0.00000000E+00  0.00000000E+00  0.00000000E+00
  0.00000000E+00  0.00000000E+00  0.00000000E+00
  0.00000000E+00  0.00000000E+00  0.00000000E+00
  0.00000000E+00  0.00000000E+00  0.00000000E+00
  0.00000000E+00  0.00000000E+00  0.00000000E+00
  0.00000000E+00  0.00000000E+00  0.00000000E+00
  0.00000000E+00  0.00000000E+00  0.00000000E+00
  0.00000000E+00  0.00000000E+00  0.00000000E+00
  0.00000000E+00  0.00000000E+00  0.00000000E+00
  0.00000000E+00  0.00000000E+00  0.00000000E+00
  0.00000000E+00  0.00000000E+00  0.00000000E+00
  0.00000000E+00  0.00000000E+00  0.00000000E+00
  0.00000000E+00  0.00000000E+00  0.00000000E+00
  0.00000000E+00  0.00000000E+00  0.00000000E+00
  0.00000000E+00  0.00000000E+00  0.00000000E+00
  0.00000000E+00  0.00000000E+00  0.00000000E+00
  0.00000000E+00  0.00000000E+00  0.00000000E+00
  0.00000000E+00  0.00000000E+00  0.00000000E+00
  0.00000000E+00  0.00000000E+00  0.00000000E+00
  0.00000000E+00  0.00000000E+00  0.00000000E+00
  0.00000000E+00  0.00000000E+00  0.00000000E+00
  0.00000000E+00  0.00000000E+00  0.00000000E+00
  0.00000000E+00  0.00000000E+00  0.00000000E+00
  0.00000000E+00  0.00000000E+00  0.00000000E+00
  0.00000000E+00  0.00000000E+00  0.00000000E+00
  0.00000000E+00  0.00000000E+00  0.00000000E+00
  0.00000000E+00  0.00000000E+00  0.00000000E+00
  0.00000000E+00  0.00000000E+00  0.00000000E+00
  0.00000000E+00  0.00000000E+00  0.00000000E+00
  0.00000000E+00  0.00000000E+00  0.00000000E+00
  0.00000000E+00  0.00000000E+00  0.00000000E+00
  0.00000000E+00  0.00000000E+00  0.00000000E+00
  0.00000000E+00  0.00000000E+00  0.00000000E+00
  0.00000000E+00  0.00000000E+00  0.00000000E+00
  0.00000000E+00  0.00000000E+00  0.00000000E+00
  0.00000000E+00  0.00000000E+00  0.00000000E+00
  0.00000000E+00  0.00000000E+00  0.00000000E+00
  0.00000000E+00  0.00000000E+00  0.00000000E+00
  0.00000000E+00  0.00000000E+00  0.00000000E+00
  0.00000000E+00  0.00000000E+00  0.00000000E+00
  0.00000000E+00  0.00000000E+00  0.00000000E+00
  0.00000000E+00  0.00000000E+00  0.00000000E+00
  0.00000000E+00  0.00000000E+00  0.00000000E+00
  0.00000000E+00  0.00000000E+00  0.00000000E+00
  0.00000000E+00  0.00000000E+00  0.00000000E+00
  0.00000000E+00  0.00000000E+00  0.00000000E+00
  0.00000000E+00  0.00000000E+00  0.00000000E+00
  0.00000000E+00  0.00000000E+00  0.00000000E+00
  0.00000000E+00  0.00000000E+00  0.00000000E+00
  0.00000000E+00  0.00000000E+00  0.00000000E+00
  0.00000000E+00  0.00000000E+00  0.00000000E+00
  0.00000000E+00  0.00000000E+00  0.00000000E+00
  0.00000000E+00  0.00000000E+00  0.00000000E+00