Li 
 1.0000000000000000
    20.6400000000000006    0.0000000000000000    0.0000000000000000
     0.0000000000000000   20.6400000000000006    0.0000000000000000
     0.0000000000000000    0.0000000000000000   20.6400000000000006
 Li 
 432
Cartesian
 -0.4984721900000000  0.2260888700000000 -0.0122189800000000
 18.2322606399999998  1.3926611600000001  1.7670530000000000
 17.2254995099999988  3.3970462700000001  3.9991161200000001
 15.9817418100000008  5.2560647300000003  4.9286364000000003
 13.8977662700000000  7.1148293999999996  6.9830871999999999
 11.8379163500000004  8.6922388300000009  8.8252830800000002
 10.1436676299999995 10.0269414300000008 11.1846424800000008
  8.0120380900000008 11.3964418700000003 11.8475275799999995
  6.8953474000000003 13.7628292400000003 13.6983730799999996
  5.0218232499999997 15.7987386599999997 14.9095594400000007
  3.2683484799999998 17.3859359299999987 17.1081180099999983
  1.3473501900000000 18.9345194899999996 18.5947511299999988
  1.6505150799999999 18.2714106600000008  1.6320578800000001
 -0.2776289500000000  0.2962778000000000  2.9881060200000000
 18.7362507700000016  1.0227052400000001  5.6195529300000002
 17.3914209399999997  3.4807079700000001  6.5101702200000000
 15.5027794100000005  4.8353591700000003  8.4891436000000002
 13.6005374200000002  6.9505958000000003 10.1894979499999998
 11.6792496299999993  8.5688668499999991 12.1150383700000006
 10.0503062199999995 10.9233506499999997 13.4351343900000000
  8.2070334200000001 12.0684604800000006 15.0966859000000007
  6.3101308100000004 13.3758630299999997 16.6875379499999994
  5.3501681200000002 15.3466200300000004 17.9495510500000002
  3.4870643200000000 17.0092397899999987 -0.4021574400000000
  3.5295904999999999 16.8983212400000014  3.4882596600000002
  1.2449029800000000 19.0460758800000001  5.0267533999999996
 -0.2487916200000000 -0.6262384700000000  7.3019159599999997
 18.7534504300000009  1.9041680500000000  8.2444377699999993
 16.9030403999999983  3.4836084999999999 10.3871984200000007
 15.4614916299999994  5.6281758599999998 11.9745707199999991
 13.6538617400000000  7.0910126900000003 13.9406335899999991
 11.9476871500000001  9.1980906299999994 15.5864460299999994
  9.5860340500000003 10.7591393600000007 16.7923792899999995
  7.9295101399999997 12.2980794400000004 18.7660997000000016
  6.5866821399999997 14.0745221899999997 20.1223707800000007
  4.9883003199999996 15.4041427899999999  1.3205375100000001
  4.8935177999999997 15.5105662100000004  5.8388325500000002
  3.0413966600000002 17.7891050200000009  6.6152901200000001
  1.3942580099999999 18.7941908899999994  8.8359712199999993
 -0.3756066300000000  0.1473749400000000  9.9635054299999997
 18.6983958399999999  2.1960664099999998 11.9682227999999995
 17.0256054699999986  3.6868099000000001 13.6195771699999995
 15.2998442299999997  5.6640635699999997 15.8851512300000000
 13.3844750999999995  7.8179562699999998 17.3310124300000012
 11.8071767399999992  9.3500933400000008 19.1733024599999986
 10.0767350499999999 11.5462180700000001  0.0064890000000000
  8.1089961600000002 12.4662438099999999  1.8583399000000000
  6.7265393800000002 14.3355124899999993  4.0773729899999998
  6.6897154600000004 13.7991130000000002  7.6642635400000003
  5.0305472299999998 16.3388117400000006  8.6887983999999996
  2.8932432900000000 17.8843641499999997 10.6776479500000008
  0.9093420300000000 19.2308306299999998 11.6924840799999998
 -0.4646040200000000  0.3651339900000000 13.8260737299999992
 18.3784542500000008  2.3342863299999999 15.7658256399999992
 16.6477584599999986  3.7654381799999999 17.4853233699999997
 15.2282948299999994  6.1638553900000002 19.2493189800000017
 13.6151589299999998  6.8702494999999999  0.5047315100000000
 11.7084712300000007  9.1432786799999999  0.9612308800000000
 10.0404982799999996 10.3473211200000001  3.6001721199999999
  9.1062570399999991 12.9356836299999998  5.6476047899999999
  8.8147388299999996 11.3245511600000004  9.4213190800000000
  6.8057944199999998 13.6945873099999993 10.2289660100000006
  5.1914731200000004 15.5583759300000004 11.9537985800000008
  2.9422561900000002 17.6087701199999991 13.2532412300000004
  1.0956463900000000 19.0365064199999985 15.1592767599999991
 -0.3896203300000000  0.4443737500000000 16.5911917399999993
 18.1166657300000011  1.5941202400000001 19.0634543600000015
 17.4732347600000004  3.5048182899999998 20.6628350599999990
 15.2395581100000008  4.7846556500000004  2.1394394000000001
 13.3446319399999993  7.0173905400000001  3.8158532799999998
 11.4073323400000000  8.8037772899999993  5.5047582899999998
 10.1866454900000001 10.2615310700000002  7.5320347999999999
  2.1221197599999999  1.5792387800000001 18.8252688500000005
 -0.5802101300000000  2.8998886100000001  0.0793614100000000
 19.1188842200000018  4.8894879800000002  2.1284288600000001
 17.1959875500000017  7.0072227099999997  3.3414250399999998
 15.8394074000000007  8.6736374200000004  5.3066496900000004
 13.6671835300000009 10.2609922600000001  6.6829784500000002
 12.2519484999999992 11.9076549699999994  9.4766612000000006
 10.1804093299999998 13.2248292999999997 10.5772824799999992
  8.5929688899999999 15.2037571200000006 12.3897002000000001
  7.1442140099999998 17.2018889600000016 13.6145744400000002
  4.6439199100000002 18.7922730800000011 15.1279809400000005
  3.0787532400000002  0.0777845900000000 17.0613965900000011
  3.1784038699999999 -0.4590969600000000  0.1998164600000000
  1.7491111200000000  1.9096567499999999  2.3998241299999998
 -0.3177383100000000  3.0653116100000002  3.8531726800000001
 18.7726419000000000  5.1793354300000001  5.2721676400000002
 17.2776251000000016  7.0405078400000001  7.0147969500000000
 15.4630694200000001  8.7182117100000003  8.1349665299999998
 14.0524859000000006 10.0006264999999992 10.2889239600000000
 12.1583756899999997 11.9423285000000003 11.8586776799999996
 10.0416051700000004 13.4747673199999998 13.4699393900000004
  8.5605731499999997 15.2774310100000008 15.4304265300000001
  7.0699582599999999 17.3372900100000003 16.9270661500000017
  5.2869732899999997 19.0071818499999985 18.3737576500000017
  5.4778731000000001 19.0768956500000009  1.7001854500000000
  3.3115488599999998 -0.0604728200000000  3.4458831499999998
  1.6124893400000000  1.3899228400000001  5.6211080999999998
 -0.3390776000000000  3.5094865999999998  6.9276117199999998
 18.5155672500000001  4.9289768799999996  8.3564496300000002
 17.1135632300000005  6.9485222999999996  9.9061289000000006
 15.4352366199999995  8.2286880900000003 11.5198318799999999
 13.4778761700000000 10.1013567700000007 13.5790985200000005
 11.8815628199999992 11.6200401699999993 15.2385234500000006
  9.9362644099999997 13.0575394199999995 17.1885599999999990
  8.6245218599999998 15.1247861300000004 18.3808107599999992
  6.8743345299999996 17.0457693500000005 20.2176366200000004
  7.1983756000000003 16.9304343400000015  2.6746373200000000
  5.2457588499999996 18.6419104000000004  5.3632768899999999
  3.7403184100000000 -0.4544241900000000  7.5134957000000000
  1.9352076300000001  1.7709626700000001  8.4847574100000003
  0.0400313600000000  2.9843581600000002 10.3385034900000008
 19.1444728600000005  5.2125111600000000 11.7440429200000001
 17.0879232300000012  6.6610611200000003 13.9519713799999998
 14.8080475499999995  8.4372517499999997 14.9956897500000004
 13.9617597999999994 10.2355067000000002 17.3144885500000001
 12.3118753800000000 12.1680198199999996 18.2815171800000016
 10.2770509699999995 13.6615770899999998 20.0467054000000005
  8.5547033500000005 15.2793180500000005  1.2712084900000000
  8.5982675000000004 15.8482279899999998  5.6339532500000002
  7.1552905100000004 16.9806361199999998  6.3276924200000000
  5.6124006800000004 19.1512995600000018  8.8751149300000005
  3.1216926599999999  0.0948259600000000 10.4723014800000005
  1.6091942500000000  1.6819748000000001 11.5686575699999992
 -0.2309969400000000  3.8308775200000000 13.3767199500000000
 18.7264958800000016  4.6634696699999996 15.5761051599999991
 17.1578302700000016  7.3583554800000002 17.2606234600000015
 15.9103738900000007  8.4542943600000005 19.6105709899999994
 13.6879666100000001 10.8714746000000009 20.5571643799999997
 11.9926920700000004 12.3959360600000004  2.0707686600000001
 10.4621831800000002 13.8552524899999998  3.6553999500000001
 10.4787279000000009 14.1464982700000004  7.2526111999999996
  8.6588982699999999 15.5053578699999992  8.7574642399999991
  7.3749487399999998 17.5025127400000002 10.5160748799999997
  5.0355941099999999 18.9057314800000000 11.8994018300000004
  2.8550609900000001 -0.1184100200000000 13.6263241100000005
  1.7584542599999999  2.3625057800000002 15.4537292100000005
 -0.2295775100000000  3.2687436800000000 17.9973557000000000
 18.9279542700000007  5.4059134599999998 18.7351896599999996
 17.8136470200000012  6.7978409500000003 21.0987073800000005
 15.4739113199999991  8.7832640099999999  1.7770289200000000
 13.4799009000000005 10.3547357800000004  3.5991844099999999
 11.8779936599999996 12.0591655299999996  5.2108806500000000
  3.4193850800000001  2.9961142900000000 16.8573389800000015
  1.5932061900000001  4.5664305399999998 19.4513501200000007
  0.7828922200000000  6.5243317200000002  0.1025357500000000
 19.8763931099999986  8.4386422000000003  2.0617848500000000
 17.7235091099999984 10.6272825900000001  2.9619831500000000
 15.6761099700000006 11.6360408599999996  5.1103056000000002
 13.4506891100000008 13.3288540199999996  7.0019369200000003
 12.5824192299999993 15.4963513699999993  9.2657172699999997
 10.3323655999999993 17.1130990300000008 10.4507059800000004
  9.1390006899999996 18.8102116600000002 12.3121199899999993
  7.4091401799999996 20.7380069899999988 13.9638839200000007
  5.0282143200000000  1.8953383200000000 15.0895835799999993
  5.1204435000000004  1.5242895200000000 18.7100241899999986
  3.3055941899999999  3.6147304199999999  0.6037071600000000
  1.5171198100000001  4.9345252400000001  2.4811052099999999
 -0.3640748100000000  6.6264251300000003  3.5957957700000001
 18.9333206099999991  8.4554001099999994  5.3436865300000003
 16.9980888700000001 10.4226661800000002  6.7340027500000001
 15.0611208800000007 11.3548745499999999  8.5238481400000001
 14.5778580000000009 13.2910689600000005 10.5724954400000009
 12.3639082600000005 15.4872432399999997 11.9253397200000002
 10.4818691400000006 16.9711131399999999 13.5321859999999994
  9.4877765899999993 18.9523282199999983 14.8131811899999999
  7.1804256600000000 20.2910188600000012 16.4492507600000017
  7.2226012099999997  0.1980896000000000 -0.7492168000000000
  5.1247390199999998  1.4557269200000000  1.4274775600000000
  3.7761978300000001  3.1175186699999999  3.8320387600000001
  1.3950027899999999  5.1966377300000000  5.1675278699999998
 -0.9455491300000000  6.5231634400000003  7.2095821700000000
 18.5813672200000006  9.1626370900000005  8.3727574499999999
 16.4691501400000000 10.2853740800000004 10.0873449500000003
 15.4130439700000004 11.8002648000000008 12.1435696600000007
 13.6187586399999994 13.3835681900000001 14.0451313800000008
 11.6556521100000001 15.5591802399999999 15.3871048399999992
 10.4288606399999999 16.9651666399999996 16.4189472499999987
  8.8994930599999993 18.5786051100000016 18.8697830000000017
  8.4913941200000007 18.9371659900000004  2.1767296400000000
  7.0258611999999996  0.2780786500000000  3.1337703900000000
  5.1912475100000002  1.3087617400000000  5.4947507900000003
  3.6690752500000001  3.8640155500000000  6.5859082400000002
  1.7972838600000001  5.5914156000000004  8.6265674600000004
 -0.2281342500000000  7.3742361699999996 10.0771303200000002
 18.5654314700000000  8.1351467599999996 11.9634996099999995
 16.9633657900000010 10.3478657900000002 13.3404585999999998
 15.3682803799999999 11.7017977799999997 15.9661516799999994
 13.7352115000000001 14.1221192599999998 16.9811016399999986
 11.3258603099999995 15.3127834099999998 18.6679935499999985
 10.0582280300000004 17.2338766099999994 20.4880454800000003
 10.7203622599999999 17.2871630299999985  3.7308800799999999
  8.9802905899999992 19.0610651699999991  5.2378278900000002
  6.8780402799999996 -0.4196330800000000  6.3801593900000002
  5.7138192600000002  1.8284683500000001  8.7277277499999997
  3.7803985199999999  3.4755015600000001 10.1485129399999998
  1.7293270199999999  5.4049256200000002 11.0488630499999996
  0.2964361200000000  6.7136256699999999 13.4078353700000008
 18.9783539099999992  8.1661119000000006 15.7398767900000003
 17.3603482500000013  9.5524143000000006 17.4330495300000017
 15.8665986199999995 12.2222389699999994 18.9907394499999995
 13.3960079000000007 13.9025115100000001 20.7385204799999983
 11.6728855700000000 15.2054784400000003  1.6994743500000000
 11.7838031799999996 15.5594379000000007  5.4083541700000000
 10.7381736300000004 16.9550813799999993  6.5419355399999999
  9.2524958099999992 18.8503898899999989  8.6382993199999998
  7.4597173699999999 -0.2066937200000000 10.4820825400000004
  5.2753296699999996  1.6472637100000000 12.0696326299999992
  3.3879902899999998  3.4981111500000002 12.8821771999999992
  1.7619910000000001  5.1577782599999997 15.7186032900000008
  0.4149732900000000  7.0790158099999996 17.5232601400000014
 19.6430008399999991  8.3628414800000002 19.4488027199999998
 17.4205601100000003 10.1509042300000001 21.0649800599999999
 16.0739843499999999 12.5568931900000003  1.7086469700000000
 14.0592481899999999 13.5541358200000008  4.1324968699999998
  5.0744085200000004  5.3990774300000002 15.0622573800000001
  3.3600725499999999  6.8483465700000004 17.2602769900000013
  2.3698845400000002  8.4716011400000006 18.8187178899999985
  0.8836588000000000 10.7694425999999996  0.5555245700000000
 19.3140309899999991 12.4337124200000009  1.6706085700000000
 17.8191167700000008 14.3949194699999996  3.5189397599999999
 15.3277018199999997 15.0909020500000004  5.1801780099999997
 14.1884150699999996 17.1056725699999994  7.4543716299999998
 12.5416560900000000 18.5892474400000012  9.0956116100000006
 10.4789040700000005 -0.2843930100000000 10.3340145000000003
  9.0444328600000006  1.9446494500000000 12.2711391100000000
  7.1823897099999998  3.6667383299999998 13.5885282899999993
  7.0857943199999998  3.8172108900000001 16.7667045100000003
  5.1182970900000004  4.7096034099999997 18.6120599200000001
  3.5722064300000000  6.6156851000000003  0.4319430300000000
  1.9804363300000001  8.5279358399999996  2.1839017500000000
 -0.3092045700000000 10.8762848999999999  3.5027448099999998
 19.1334681000000018 11.8966033299999996  5.5331070899999997
 16.8074275700000015 13.6968256299999993  6.7850524099999996
 15.6458480600000005 15.3464107199999997  8.5986316899999995
 14.3753321199999995 17.2066036199999992 11.2938724300000004
 11.9660573600000006 19.0892984900000009 12.1276420300000005
 11.2750287399999998 21.0637873300000003 14.1457171299999995
  8.9353343200000008  2.2169338100000000 15.2471486899999995
  8.6144443899999992  1.6702688200000000 19.2198081700000003
  6.1911032500000003  3.9316923300000002  0.0974389100000000
  5.0930320800000004  5.1735201599999998  2.3244601199999999
  3.6334027099999999  6.5612727399999997  3.5285262799999999
  1.5155010499999999  8.6412540100000008  5.1056777899999997
  0.3155496500000000  9.7990718200000000  7.2514999500000004
 18.9817668700000013 11.4301853300000005  8.5384339899999997
 17.5951411200000010 13.1881955000000008 10.1902848699999993
 15.8024690900000007 15.0473841999999998 11.8401463800000002
 13.8984670300000008 17.2071145899999998 13.9171718400000000
 12.1210825399999997 19.2254849499999985 15.5662870000000009
 10.2164952600000003  0.3044345000000000 17.2949158899999986
 10.5338798400000009 -0.2282838400000000  0.0380186700000000
  8.7524580899999993  1.8070538700000001  1.3339411800000001
  6.8867203100000003  2.7309719800000001  3.7437376300000000
  5.5600952599999998  5.1126011000000000  4.7641744099999999
  3.2994586500000000  6.9358773800000000  5.9258073600000003
  1.7484004000000000  8.4068831300000006  8.3178234000000000
  0.2452984700000000  9.8727204999999998 10.5684027599999997
 19.2754753200000017 11.8365344599999993 11.7363041100000007
 16.8258512499999995 13.4187526699999999 13.7833445900000005
 15.7234351100000005 15.5259833300000007 15.5284692700000004
 13.9225716100000003 17.1651387799999995 16.7922410699999993
 12.1316235900000002 18.6402320400000008 18.1919653600000011
 11.6321157999999993 18.2027374799999997  1.5594972100000000
 10.5977938799999993  0.3990180300000000  2.9249388700000001
  9.3488081199999993  2.2254909999999999  5.5665745700000002
  7.2903882500000003  3.7711473600000001  6.6894971999999999
  5.0676879699999997  5.1400869800000004  7.7683464300000002
  3.8849898100000000  7.5116019200000004 10.0529944400000009
  1.5627167799999999  8.6760086399999992 12.1390334699999993
 -0.4519881000000000  9.2835449800000003 13.8085525899999997
 18.2913728800000008 11.7757773500000003 15.6356992100000003
 17.2757571399999996 14.0392813800000003 16.9118953999999988
 15.9025066499999994 15.1975172599999997 18.8592291100000011
 13.2224353099999998 17.0156570199999990 -0.4833508500000000
 13.5479143999999998 16.9566157799999999  3.7229274000000001
 12.7144573500000000 19.0533274100000014  5.1488752000000000
 10.9959500999999999 -0.2773025700000000  7.0825511600000004
  8.5972043100000004  1.5300818199999999  8.0269806100000007
  7.5859899000000004  3.8569591499999998  9.8673792599999999
  5.5762675399999999  4.6428740900000003 11.2334352000000006
  3.6814180799999998  6.4401118500000001 13.2644561200000002
  2.1812047099999998  8.4787551600000004 15.1518300499999992
 -0.0461170300000000  9.9408675300000002 17.3030822099999995
 18.7652095400000007 11.8558717900000001 18.7533865000000013
 17.5281069199999990 13.4766185699999994 -0.3343822600000000
 15.2791835200000001 15.3898000300000000  1.4445816100000000
  6.4371692100000004  6.8042785300000004 13.5265893500000001
  4.9221575099999999  8.4752175100000002 15.1985082699999996
  3.5010056500000002 10.2943952099999994 16.4317807299999998
  1.4119675599999999 12.2398922500000005 18.4749988400000014
  0.3273052200000000 13.5942229700000006 -0.4264722300000000
 18.6255109099999991 15.7657148899999999  1.7164588500000000
 16.9324066600000016 16.8010005999999983  3.9252184899999998
 15.4873294000000001 18.3029479500000001  5.3822586599999998
 14.0173005199999992  0.0928092800000000  7.2278535599999998
 12.6170097699999992  2.0169906399999999  9.0283792300000005
 10.1437608099999999  2.8783477899999999 10.2387669999999993
  9.4906505100000000  5.3485704600000004 11.9844440900000002
  8.3641420899999996  5.7902154100000001 15.7196566900000008
  6.0049940499999996  6.9803943300000002 17.7900409800000006
  4.9862456899999996  8.6446104199999994 19.3037140700000016
  3.6995984599999998 10.9234974900000008  0.5063125200000000
  2.4961827799999998 12.5666046100000006  2.3292005200000001
 -0.4829962500000000 14.2407799599999993  3.5068722800000001
 19.6088545100000005 15.2544080799999993  5.9780356499999998
 16.7167452700000005 17.0338237700000015  6.9869372700000003
 15.8669677500000006 18.7862672099999983  8.9333167699999994
 13.8751364099999996  0.1492866600000000 10.5223872299999996
 12.3066691000000006  2.3563290399999999 12.2205486800000003
 10.8215788600000007  3.9119124699999999 14.2375606300000008
 10.4431756700000005  3.4591710000000000 17.8462114400000011
  8.4539248100000002  5.1593660899999998 19.0322464899999986
  6.6452746100000004  6.9603192800000002  0.2600349600000000
  5.2050141600000002  8.8832345499999992  2.2480657700000002
  3.8209631300000000 10.3154827299999994  3.6160426700000001
  1.6389438000000001 11.9893176799999992  4.5786047800000000
  0.6779390000000000 13.1573004400000002  7.1233457600000003
 19.4367342799999996 14.8057801999999992  8.2102421000000003
 17.4851107799999994 16.4755727199999988 10.9330966299999996
 16.0552253699999987 19.4522022399999983 12.4415168299999994
 13.8849905400000004  0.5707555500000000 13.6326520000000002
 12.5839511399999999  1.9197225000000000 15.8103814099999997
 12.5212672900000008  1.4855900799999999 19.0552955200000014
 10.3848158300000009  3.6032988900000000 -0.2586903000000000
  8.5083360900000002  5.3231880100000000  1.8384031700000001
  6.8462595899999998  6.7770021600000003  3.4663373599999998
  5.0073065999999997  8.4877620999999994  4.7927886700000002
  3.3387889600000000 10.2726117200000004  6.7700518599999997
  2.1871741899999999 11.1995535000000004  8.9298664700000003
  0.4265450100000000 13.3637082800000009 10.2943904600000007
 18.9710703900000013 14.5448272700000008 11.6866617700000006
 16.9676861499999987 16.9829827900000012 14.0261925000000005
 15.1464754999999993 19.2606116599999986 15.0676490600000008
 13.5064592900000005 -0.1339244100000000 16.8489354899999988
 13.8651251099999993 -0.6607144400000000  0.3834488700000000
 12.1853774000000001  1.7632327500000000  1.5190614499999999
 10.9224019499999994  3.5936974799999999  3.5331464200000000
  8.8732071700000006  5.5183756800000001  5.0826880200000000
  7.4019648199999999  6.7798030300000001  6.8022901400000002
  5.1151550600000002  8.0233470400000009  7.7318229799999996
  3.8229820200000000  9.6396331499999999 10.4766601099999992
  1.7198663199999999 11.6810070300000000 12.2387772100000003
 -0.3040938400000000 13.2666475899999998 14.0494235199999995
 19.2398390799999994 15.5472056799999994 15.1952608100000006
 17.3127737300000000 17.4726666600000016 17.0939154900000005
 14.9338012399999993 18.9731809399999989 18.4492883300000017
 15.5866996199999992 18.5592089999999992  2.2084747000000000
 13.8749553999999993 -0.1073931800000000  3.5911744699999999
 12.1356805300000001  1.9688810000000001  5.1587967299999997
 10.5523646099999997  3.6133037300000002  7.3018587000000004
  8.3877047800000000  5.2767457100000001  8.5408065000000004
  6.9270439899999996  6.6419786900000002 10.2099149400000009
  5.2810092700000002  8.2422361800000008 11.7340476299999992
  3.6764657600000001 10.1023949900000005 13.4063277099999993
  1.2769591600000001 11.9767662900000005 14.5748461500000008
 -0.2963545500000000 13.2034886999999994 16.7023701100000004
 19.0661839800000017 15.9085557499999997 18.7155744900000016
 16.9306253899999994 17.5024790800000005 -0.0908904300000000
  8.3466973299999996  7.9992771400000002 12.1259869100000000
  6.6583965899999997 10.0356084299999999 13.8861422300000008
  4.7690136100000000 11.9692287200000003 14.7443001200000001
  3.1857657499999998 13.5988786000000008 16.2321657899999998
  1.9019187500000001 15.5185825099999999 18.8170119299999996
 -0.3961318200000000 17.4181443499999986 -0.0194645900000000
 18.7565045999999995 18.8229006100000014  2.0630251999999998
 16.8169595799999989 20.5093557000000004  3.9563164700000000
 15.8122235999999994  1.7077111500000000  5.7529369299999997
 14.1236116299999992  3.2134638799999999  6.8004702600000000
 12.0191769399999995  5.3746002099999997  8.4031129199999999
 10.3747575500000000  6.6399659499999997 10.4390995300000000
 10.1956014300000000  7.3312659299999998 14.3020908999999996
  8.5920262699999999  8.5551320000000004 15.6961954400000003
  6.9377649899999998 10.7863968600000000 17.0290359699999989
  5.1217091600000000 11.7574079999999999 18.4694189299999998
  3.8948465900000002 13.9698624099999993 -0.6259282100000000
  1.4541398699999999 15.2291999899999997  1.6124624200000000
 -0.1449989400000000 16.9153010600000009  3.6798145700000000
 19.0649544999999989 18.9253137500000008  4.8021720999999999
 17.5863984699999989 20.6109727400000011  6.8823415700000004
 15.4451179399999994  1.8028779399999999  9.0391647899999992
 14.2461738699999998  3.9377685300000000 10.1557360899999995
 12.0369691000000003  5.1669643699999996 11.8803696199999997
 12.4267423699999995  5.3937608499999996 15.6502672000000000
 10.3621676800000007  7.0461527600000000 17.3718082199999984
  8.2887700300000002  8.8190901700000008 19.1331327500000015
  6.5996942799999996 10.7251174200000001  0.1748626600000000
  5.0621311499999999 12.9838478599999991  1.8917745300000000
  3.4528862500000002 14.5178074800000001  3.8392478799999998
  1.5012187400000001 15.8211311600000002  5.2331971099999999
 -0.2355457700000000 16.9869376299999999  7.3133112999999996
 18.5584315400000008 18.2621181099999994  8.5552456499999998
 17.6622721200000008  0.4466796700000000 10.4279023399999993
 15.6976978900000006  2.3680715700000001 11.8478090100000006
 14.2503948099999995  3.7331547500000002 13.6849239699999998
 13.9388954100000007  3.5062404599999999 17.6120784099999987
 12.2265299100000000  5.8196517999999999 19.0399666200000013
  9.9109830500000005  6.5654663400000004 -0.2729393300000000
  8.6323910700000006  8.6338858100000007  1.8871514800000000
  6.6359717099999997 11.0377758900000007  3.9240991200000002
  4.9907016999999998 12.3416483100000001  5.3668221100000002
  3.3628868900000000 13.8654386600000006  7.0529950699999997
  1.6466131900000001 15.9802382400000003  8.7222201800000008
 -0.7924166499999999 17.3688844300000014 10.4997986500000007
 18.5789311800000014 19.2850868700000007 12.4751260800000008
 17.4381017500000013 21.5015305099999985 14.2476511699999993
 15.6015323600000002  2.1521703300000001 15.7581057599999994
 15.0097220199999999  1.7140031899999999 19.3045779700000004
 13.9329555400000000  3.4392421299999998  0.0769114900000000
 11.8221127900000003  5.2272138500000001  1.8684326499999999
 10.4558727800000000  6.8702795800000001  3.3241855700000000
  8.4626525000000008  9.1047897599999992  4.9472680899999997
  6.5070797499999999 10.3861424699999993  6.9086277100000002
  4.9299160999999998 12.0492295299999999  8.5673430800000006
  3.1458127899999999 13.7771521900000007 10.3363869699999995
  1.0633440999999999 15.7229849900000005 12.1146534500000005
 -0.7977073200000000 17.2109403000000007 13.7554263799999994
 18.4711926200000001 19.3857475699999995 14.9659315199999998
 16.8203470499999987 20.7996592299999996 17.1213173000000012
 16.7088327499999991 -0.3810792100000000  0.3851743500000000
 15.1096026499999994  1.7460342400000000  1.5951303500000000
 14.0384344399999996  3.3572057700000002  3.7428082499999999
 12.4902865500000004  5.0201507599999999  5.6225652899999998
 10.1981164399999997  7.0651080400000001  6.9907473900000001
  8.5494573999999997  8.0295989199999998  8.8729081900000004
  6.8227116299999997  9.5178489099999997  9.9424086400000000
  5.4855707200000001 11.7929229099999997 11.2303026199999998
  3.8315195399999999 13.6355940300000000 13.0671926700000007
  1.5242692799999999 15.2093536000000000 15.0131784199999991
 -0.0588382100000000 17.2896446300000015 16.6123048599999983
 19.2146015599999984 18.9613676899999994 18.5196043800000005
