Li                                      
   1.00000000000000     
    22.0829999999999984   -0.0000000000000006    0.0000000000000000
    -0.0000000000000006   22.0829999999999984    0.0000000000000000
     0.0000000000000006    0.0000000000000006   22.0829999999999984
   Li
   500
Direct
  0.0054011135262400  0.0257468496128226  0.9839661481682711
  0.9544745591631596  0.1074306842367463  0.0989582556717821
  0.9565986179414026  0.1897446488248846  0.1959985545442180
  0.9675876923425264  0.2989053208350327  0.3009720047095072
  0.0075201942670802  0.3883186519041786  0.4077687094144835
  0.9795593130462379  0.4890648159217506  0.5174317674229059
  0.0322943282162740  0.6247283068423641  0.5868679463840962
  0.0241620259928439  0.7423529031381619  0.7009328297785657
  0.0289263220576927  0.8014538550015828  0.7931876072091626
  0.9865261060544341  0.8941999995471619  0.9256675632839730
  0.0877723728660058  0.0071626192093461  0.0873731635194517
  0.0710061440927419  0.0854110075623780  0.2046124987546989
  0.0742740397590893  0.2161754621201837  0.2892610505818922
  0.1025955232531786  0.2976714336820194  0.3918534542408167
  0.1107431716705136  0.3986140931938564  0.4985648965267373
  0.1103043762170017  0.4823455440836852  0.6062550627179277
  0.0923110628084984  0.5954924190553825  0.6950938735679060
  0.0651471018430456  0.7117444310102812  0.8046068464429652
  0.1040578549110194  0.8034592609699800  0.9186072761852984
  0.1060551895122970  0.9122965145134287  0.0095611927727219
  0.2227386319793538  0.9806090811936770  0.1887123533940169
  0.2020586890368179  0.0749666770819175  0.2821431956708764
  0.1970044853507247  0.1935474437349995  0.3819522419961032
  0.2200719100665651  0.2826115781370291  0.4997355350269430
  0.2084356473305249  0.4006233310691485  0.5827863718697657
  0.2107881841235368  0.5097952619662180  0.7081928125707577
  0.1685580967259881  0.6008111787347730  0.8045244880677416
  0.1999955807634848  0.6904005986505481  0.9073894615767770
  0.2016759928451748  0.8139487678304604  0.0111628211746577
  0.2237194258026562  0.8985153946474682  0.0950058642394609
  0.3408551193225549  0.0249619471992020  0.3009302544944106
  0.3046579504596281  0.1229056301227160  0.3717456554815897
  0.2977967948195470  0.1917996363718686  0.4863772607888421
  0.3247539356065730  0.2733757940497199  0.6170522732418604
  0.2905387460942777  0.3907772875062250  0.6801830638953064
  0.2989876361907378  0.4808319548974325  0.8049644436897196
  0.2969034374858524  0.5930243997645235  0.8941141439116080
  0.2843478648734319  0.6875545170493140  0.9923937313770779
  0.3220996875424547  0.7924305669519569  0.0925426246433929
  0.3077362536793018  0.8833799841507073  0.2222095421817656
  0.4217613358692205  0.0241828945342561  0.4135048122990526
  0.3842683562016020  0.1017053742697982  0.4998468373862224
  0.4063633419372366  0.1762059942036842  0.6024132767287043
  0.4093001521532429  0.3021087886609592  0.7287355567631195
  0.3957277303808340  0.4301630670651662  0.7891920685595224
  0.3945248824887955  0.5241864044740296  0.8995746587873015
  0.4159842263279430  0.5931990494950838  0.9861929257800099
  0.4102844051985670  0.6612963492279107  0.1099171992030037
  0.4315678259294486  0.7825708540506255  0.1930118249332082
  0.4217898650545635  0.8805457166145914  0.2789294507086879
  0.4863905714803209  0.9898341846669396  0.5196103110990364
  0.4768273019970124  0.0965747910157120  0.5874290417968595
  0.5050221718063668  0.1868360820540715  0.7029800493592333
  0.5099595752388737  0.3183547792419503  0.7987507331431445
  0.4800641239867787  0.4055113204727618  0.8955929334782411
  0.5116932694833096  0.5046445913145874  0.0008522587510740
  0.4945774432821608  0.5723618688584011  0.1178901879273653
  0.5157932722003338  0.6709831476701567  0.2066366802517763
  0.4913328080423867  0.7801392510075615  0.3167989743241435
  0.4796054168364776  0.9086459244667822  0.4015520024453210
  0.5901611456776692  0.0008963274917377  0.5635518661413741
  0.6001455780464582  0.1013809708825804  0.6917830801974389
  0.6075161622062240  0.2001259036362839  0.8097197604492123
  0.5752915708916362  0.3239275284155241  0.9093973531675985
  0.5717197427885736  0.4075714957206884  0.9982846664855316
  0.5987672979214764  0.5088747683738646  0.1051701227188317
  0.5952502445319965  0.5979556364624372  0.2217852823438875
  0.6013143848209026  0.6983008223520386  0.3110032318978426
  0.6227074962640913  0.7891648163745870  0.4170618665942101
  0.5919850260381310  0.8815004981207295  0.4800949205271010
  0.6829966775347529  0.0096514006249180  0.7030426459267289
  0.6933652089842894  0.1064981805008358  0.7928692478377002
  0.6644099981886527  0.2255252225693951  0.8844287216410791
  0.6992145111624311  0.2926206932934861  0.9965078585337110
  0.7118509414481764  0.4072513883983149  0.0965789507766175
  0.7229852293619530  0.5029872345242978  0.2227861264320978
  0.7232839224743017  0.5944263501335882  0.3058583616356501
  0.7166114748901862  0.6928786179414033  0.3760682751437727
  0.7310622062219778  0.7969637073767117  0.4859387338676839
  0.7255293080650276  0.8937294742562187  0.5996893945568971
  0.7997450858126172  0.0105247937327348  0.7979761662817566
  0.7924697554680051  0.1077614948150156  0.9011371190508513
  0.7921389765883262  0.2100617936874514  0.9747901204546494
  0.7845089847393893  0.2950941253452868  0.0879840809672601
  0.7958312964724001  0.4087756541230831  0.2109532708418271
  0.8338844885205816  0.5048284046551643  0.3082956233301601
  0.8116604483086505  0.6084238785491110  0.3904589666259142
  0.8004263994928209  0.7225052130598186  0.4802805031019304
  0.8292997776570203  0.8335481474437358  0.5977826531721249
  0.8013925309061278  0.9362787035275986  0.7121681968029705
  0.9147637680568792  0.0314974745279173  0.8893369768600294
  0.8714591214961729  0.1056087121315059  0.9963405492913111
  0.8817888479826124  0.1905534220893870  0.0785499913960948
  0.8557641901009845  0.3106198985645037  0.1824798075442615
  0.9092013983607288  0.3916347366752717  0.3014787900194733
  0.9130854779694815  0.5009170533894860  0.4082655078567257
  0.8909716238735683  0.6001201426436609  0.5058231060091458
  0.9080867902911720  0.7242502839288107  0.5966713177557423
  0.9099925091699532  0.8310926015487041  0.7056512747362191
  0.9239266743648997  0.9268103101933605  0.8068764601729868
  0.1055734469954288  0.1287670316533109  0.0218467758003911
  0.0950447683738602  0.1849141045147817  0.1073923144500313
  0.0953264343612759  0.2850625463025835  0.2024243214237202
  0.1172173155821241  0.3840010216003265  0.3073727265317245
  0.1090570973146754  0.5336276239641364  0.4225753294389349
  0.1054530715935300  0.6217370769370092  0.5217977127201934
  0.0941627749852856  0.7225635004301978  0.6220184997509364
  0.1247536888103937  0.8224796843725954  0.6887956446135064
  0.1217275356609164  0.8789199615088563  0.8232394642937990
  0.1029685065434975  0.0086063143594615  0.9018264248516985
  0.2224642738758291  0.0885072974686381  0.1230122623737699
  0.2137969361046927  0.1882429171761117  0.2046920902957012
  0.2187411166961013  0.2990119870488641  0.3183653620432025
  0.2147736032242022  0.3804957587284363  0.4216478653262712
  0.1997065194946330  0.4836521509758640  0.5253901847575051
  0.1826939840601369  0.6021519567087807  0.6076717416111919
  0.1567208766924750  0.6701266743648944  0.6990643775755103
  0.2097242054974444  0.7721443055744217  0.7937026916632703
  0.2111409781279718  0.8858174392066331  0.9111252275506061
  0.1810747190146245  0.9899158388805844  0.0198149114703625
  0.3214154394783293  0.0819189820223727  0.1861007702757789
  0.2991028718924085  0.2026605021962595  0.2940469311234892
  0.2977893144047457  0.2972340316080277  0.4076644713127777
  0.3011783634469936  0.3901105465742916  0.5352601258886907
  0.2955648861114852  0.5313429556672560  0.6022432749173561
  0.3106440660236416  0.6286936240547050  0.6940103889870031
  0.2832105456686165  0.6830707811438685  0.8074917674229027
  0.3006615989675296  0.7666869365575337  0.9145967721776955
  0.3221598147896572  0.8821948168274218  0.9791492478377037
  0.3397138373409376  0.9879493515373809  0.0935916791196831
  0.4144881361228130  0.0993194878413277  0.2882379038174179
  0.3971722424489457  0.2040028483448779  0.3986961033374072
  0.4025861345831601  0.2887105234796010  0.4874345713897554
  0.3981372422225249  0.4094361920934659  0.6168635420912025
  0.3756594941810434  0.5380335448082221  0.6904104818185957
  0.3864961929991395  0.6214878146085212  0.7838099030928802
  0.3937261726214700  0.6901600507177434  0.8981783168047812
  0.3901731377077411  0.7601734392971977  0.0117760671104463
  0.4171864352669488  0.8928551505683089  0.1114970275777765
  0.4137205904994801  0.9932661694516156  0.1719516682515945
  0.4599210397138052  0.1018676660779789  0.3926657324638896
  0.4925472222976950  0.2217178920436567  0.4974946071638797
  0.4822758307295203  0.3001632803513985  0.5924578743830082
  0.5009724367160260  0.4256864887017144  0.6972413625866025
  0.5184246424851722  0.5180445125209445  0.7885766621382970
  0.5226480555178199  0.6110040211927696  0.8829410292985571
  0.4945276819272735  0.6786871697686010  0.9944747792419477
  0.5070244237648893  0.7534022596567524  0.0909444042928982
  0.5326187216410787  0.8666308902775910  0.1922575573970917
  0.4887776715120253  0.9802471294661075  0.2940661558665028
  0.5655093547072383  0.0913941819499158  0.4831160806955594
  0.5825035937146197  0.1899989113797957  0.6206283562015997
  0.5959092600643032  0.3000198636960576  0.7026600276230610
  0.6010949581125757  0.4005142267807784  0.8122742747815082
  0.6072876447946385  0.4956511954897422  0.8963004510256738
  0.6011565081737089  0.5963019363311162  0.9949912471131626
  0.5994079278177793  0.6502510596386344  0.0973709360141299
  0.6052278553638573  0.7753727043427077  0.2175857759362430
  0.5991530494045207  0.8551638663225134  0.2968239827016248
  0.5753082389168114  0.9826123891681391  0.3708243581035191
  0.6738988620205575  0.0881113539827041  0.5848945147851268
  0.6727420327854006  0.2171499560748060  0.6875088271521079
  0.7092981601231685  0.2993864814563238  0.7837044545578067
  0.7075983815604729  0.3854492270072001  0.8809882420866728
  0.7165249803015925  0.4859593701036999  0.9976377937780185
  0.7080536847348640  0.5676401562287765  0.1065486505456690
  0.7028146184848083  0.6984708431825410  0.2138663551147957
  0.6944549975093963  0.8135000665670447  0.3089131526513640
  0.7160463388126601  0.9085385912240156  0.3963384766562541
  0.6840872363356425  0.9942285242041393  0.4698782121994327
  0.7847370176153632  0.1046457197844504  0.7008514957206913
  0.7959423425259260  0.2092434913734564  0.7764396807498954
  0.8140748987909276  0.3000757836344690  0.8542819988226213
  0.8333185821672799  0.3813944051985700  0.9909663256803896
  0.8130104546483707  0.4770946483720522  0.0866992043653454
  0.8132191242131981  0.5887292532717510  0.2013526984558283
  0.7786978064574583  0.6998317583661660  0.2916162409998648
  0.7957547629398150  0.8013681229905387  0.3697614078703069
  0.8049440483629908  0.8945465933070693  0.4725929488746985
  0.7841952918534645  0.9962201747950914  0.5959526658515628
  0.9084251003034041  0.1361153421183730  0.8018717447810531
  0.9292504356292142  0.2133543775755129  0.9082724616220617
  0.8895977095503298  0.3031899900375876  0.9973672218448613
  0.8900206783498632  0.3786368858397893  0.1399968609337492
  0.9083916383643498  0.5012614481728050  0.2119970896164460
  0.9080318018385185  0.5665751981161975  0.3179147380337781
  0.8864534782411795  0.6875555961599389  0.3956883811076395
  0.9102462568491632  0.8000325476610968  0.4726639731920486
  0.9022578091744791  0.9214749431689526  0.6107611289227037
  0.9126521745233873  0.0179299846035406  0.7120989023230564
  0.0101403930625352  0.1135017782909955  0.9221338631526521
  0.9836846832405044  0.1955603373635810  0.0186696164470419
  0.9752405606122352  0.3008753475524131  0.1285121917311969
  0.0103651668704430  0.3960938332654109  0.2227917357243143
  0.0167169813883987  0.5012651365303640  0.3279955807634849
  0.0032572041842158  0.6006081012543589  0.3909865235701702
  0.0068028026083411  0.7258094398406030  0.4724591269302181
  0.0170072435810340  0.8208977118145171  0.6028101023411665
  0.0221671774668266  0.8967665869673525  0.7000910899787200
  0.0137664973056175  0.0044411307340511  0.8099251012090747
  0.2181433057102780  0.2034663659828837  0.0346503083820124
  0.1891358053706469  0.3057896404474008  0.0999243531223115
  0.1894216406285381  0.4028612471131652  0.1718068437259461
  0.1746487723588288  0.5200741497984893  0.2990918729339285
  0.1816475750577382  0.6021941298736593  0.3914389059457477
  0.1704958053706491  0.7223385518271996  0.4925916981388383
  0.2123492659511825  0.8048448326767215  0.6057165937599081
  0.2152908250690544  0.9062724204138917  0.7078489467010840
  0.1964199121496151  0.0116490657972221  0.8165419788977957
  0.1763318176878172  0.0904580043472336  0.9266591137979461
  0.2920713693791583  0.2056155105737432  0.1074179445727452
  0.3138793035366589  0.3254264819091617  0.1800935855635544
  0.2722175863786589  0.3872352270977686  0.3101804215912694
  0.2975966218358010  0.4854642507811420  0.4140314771543743
  0.2885515876466087  0.5971313730018579  0.4945221337680579
  0.2701392174976220  0.6999172866005523  0.5788563533034434
  0.2659397803740404  0.7659634900149470  0.6872594018022937
  0.3061348960738997  0.8883140882126526  0.8104364529275898
  0.3027952366073450  0.0022079912149593  0.8957226780781582
  0.3098642630077464  0.0963289199836979  0.9913223936965068
  0.3963144237648848  0.2048310342797635  0.2157261318661412
  0.3722909441651936  0.3195307548793167  0.3157110637141685
  0.3896670973146783  0.3818169102929829  0.4122573762622821
  0.3902998550921524  0.5060649255083121  0.4969375447176532
  0.3991207421998837  0.6459579373273527  0.5864196078431405
  0.3884147946384076  0.7089285690350025  0.7230499986414856
  0.3745381990671532  0.7867614468142889  0.8182261069601040
  0.3824903319295387  0.8884862586605067  0.9290536765837984
  0.4222845088982510  0.9961825091699481  0.0087105895938038
  0.4058448399221106  0.0910933469184414  0.0762604378934029
  0.4991839727392104  0.1991492971969393  0.3117118670470518
  0.5145867450074704  0.3067194538785500  0.4045729316668911
  0.4811235996015029  0.3950206941991610  0.5265645002943415
  0.4948949078476659  0.5203142716116460  0.5975960847710908
  0.5033181886519031  0.5925116093827825  0.6993160911108092
  0.5278572127881205  0.6961998569034975  0.7948507770683335
  0.4973097387130352  0.7742635719784445  0.8977244812751906
  0.5049148145632358  0.8784563786623210  0.9941724222252404
  0.5173486591495688  0.0054463786623202  0.0872712222071286
  0.4827088529638175  0.1251912516415317  0.2102499049042237
  0.5867716605533673  0.1765184499388681  0.3923194416519493
  0.6013792750079219  0.2943676592854203  0.5068736181678233
  0.6064238088122096  0.3904938115292325  0.6213027500792450
  0.6277239283611848  0.5114533976361884  0.7122503423447881
  0.6259099538106270  0.6375449658108039  0.8072769967848572
  0.6097856101978891  0.6945585169587503  0.9119844921432758
  0.6197139618711205  0.7942400910202423  0.0037567921025214
  0.6068312240184781  0.8733608372956567  0.0775665738350781
  0.5934266046279930  0.9795218729339297  0.1854533328804990
  0.5691918901417381  0.0796646116922517  0.2849204007607682
  0.6677925127926443  0.1737266055336661  0.5096069705203092
  0.6767354150251350  0.3050313503600037  0.6093886319793498
  0.7156080885749247  0.4202045790879865  0.7052724534709967
  0.7034504591767430  0.5116440642122910  0.8134331866141409
  0.7174017606303522  0.6164195136530353  0.8954384599012783
  0.7229115391930421  0.7092270887107759  0.0154351682289544
  0.7079127124937727  0.7882800873975455  0.1343697681474438
  0.6926996359190341  0.8878496866367769  0.1985577638907756
  0.6744481451795465  0.9699953824208691  0.3022488733414832
  0.6978808137481352  0.1083343907077818  0.4041606339718342
  0.7926494516143663  0.1863785436761276  0.5968151913236426
  0.7901480989901728  0.2924496227867621  0.6912927328714389
  0.8128104587239022  0.4070852538151541  0.7764671353529877
  0.8122745786351473  0.4946072761852989  0.8987554852148705
  0.8180560951863427  0.5994210274872103  0.9946541706289906
  0.7976319929357416  0.6986350192455717  0.1176242942534955
  0.8038857623511291  0.8168621496173500  0.2116172078069098
  0.8004312457546519  0.9113220830503082  0.3067475184531077
  0.8091504741203650  0.0147717361771527  0.4089137417923325
  0.7871371136168079  0.0923892750079247  0.4887083652583470
  0.8968232509169951  0.2054984798261117  0.6885566512702113
  0.8803395113888541  0.3052369764071940  0.7633794710863526
  0.9104609274102273  0.3820633559751840  0.8778412937553810
  0.9068301738894178  0.4901396757686882  0.0119127564189654
  0.9294507625775452  0.6040878730244970  0.0942007231807267
  0.9203576475116577  0.7127519752750970  0.2167525490196098
  0.8940089489652649  0.8141913304351789  0.3033640610424300
  0.9094172616945144  0.8979498374315114  0.3654430720463679
  0.8894664823619962  0.9909582887288835  0.4838575909070357
  0.8872521808631078  0.0944662957931470  0.5838274210931473
  0.0044247747135771  0.2345072698455795  0.7734892075352064
  0.9782414730788389  0.3210042938006623  0.8889243264049256
  0.9882024675089411  0.3790726001901916  0.0046641104016629
  0.0070778100801547  0.5082731019336109  0.1076340388534192
  0.0034318607073303  0.6078155191776489  0.2135031463116448
  0.9888400031698623  0.7113715817597281  0.3052382918987462
  0.0090128166462904  0.7948802907213661  0.3576371430512140
  0.9900136335642813  0.8723066481003485  0.4849434927319649
  0.0243401444550102  0.0028003903455129  0.5830164615314928
  0.0116985110718630  0.0863919485577114  0.7005112081691820
  0.1026399153194788  0.2131857818231211  0.9387951904179701
  0.0851363899832478  0.2788618113480936  0.0144216338359797
  0.0782456695195393  0.4143756477833662  0.0958704913281707
  0.0956238622469741  0.5104239840601394  0.2228319635013349
  0.1011957138975674  0.6106412443961418  0.2810011071865262
  0.0813343916134599  0.6851983892587086  0.3765091011185078
  0.1066719951999247  0.8139558035592955  0.4805260354118559
  0.1070414644749320  0.9079464810034850  0.5845948299596984
  0.1151302526830591  0.0061914875696232  0.6991751759271807
  0.0798227115881005  0.1181437612643208  0.7906427790608177
  0.3140881931802753  0.3333623828284189  0.9972736634515229
  0.3039240424761118  0.4387106276321120  0.0954762482452551
  0.2659698999230145  0.5218954145722989  0.1933888502467980
  0.3165413499071690  0.6084638187746236  0.3330417556491412
  0.2957295756917091  0.6900113209255991  0.3924699479237432
  0.2716156654440098  0.8079506339718350  0.4810797518453143
  0.2952532033691071  0.8971825223022236  0.6024767481773310
  0.3201775732463901  0.0182677666077993  0.7388307539736445
  0.2834102051351692  0.1148257206901206  0.8325003124575474
  0.3041605488384747  0.1916120087850359  0.9265350581895575
  0.4193550903409857  0.3207656722365613  0.0997904759317123
  0.3695961214508898  0.4335366236471501  0.1883904908753351
  0.3977603509486940  0.4924331141602138  0.3140566639496427
  0.3909711447719957  0.5790923488656432  0.4024873359597905
  0.3886129103835501  0.7161865217588215  0.4743275039623214
  0.3875514843997649  0.7768906670289368  0.5950908015215290
  0.3873170379930286  0.8752179097042969  0.6801482855590280
  0.4073883811076371  0.9826541932708395  0.7902069904451423
  0.4389620219173125  0.1002730190644385  0.9185444409726955
  0.4069878992890494  0.2100791767422905  0.9925282724267532
  0.4995510238645124  0.3233682864646994  0.2090896282208021
  0.4955163437938666  0.4023901240773426  0.3118524539238337
  0.5024392501018866  0.4880070660689242  0.3826583942399111
  0.4880636802064942  0.5919472653172093  0.5005581533306156
  0.4916413304351792  0.7088539061721661  0.5903662183580138
  0.4992607969931626  0.7994613671149722  0.7084076216999478
  0.4959840873069794  0.8929857052936683  0.8144062201693600
  0.4901188221708992  0.9949289747769754  0.9145650776615497
  0.5185806312548138  0.1125573069782178  0.0051296544853514
  0.4920544817280259  0.2160298347144831  0.0971341434587671
  0.6165357994837635  0.3027227903817433  0.3236661214508914
  0.6106729380066085  0.3936060272607875  0.4180548249784906
  0.5969920862201690  0.5002284811846209  0.5071072875062299
  0.6377566752705732  0.6033235493365936  0.6053297287506254
  0.6325904202327592  0.7068778114386660  0.6832735715256106
  0.6220128270615390  0.7863548055064982  0.7859132871439556
  0.6033272322601064  0.8684671552778127  0.8738459090703259
  0.5949512905855201  0.9818100796993150  0.9724877738531887
  0.6071231254811380  0.1063370597292064  0.0994849735090355
  0.5808127700040728  0.2118399470180705  0.1882656038581700
  0.6977872933931053  0.2754022184485834  0.4150993578770965
  0.6937427659285405  0.3914385445818027  0.5085771684100919
  0.7128997038445846  0.5090756658968445  0.5998498342616472
  0.7291782140107799  0.6112598156953339  0.7211120622198095
  0.7400493705565339  0.7113970203323845  0.7865303360050717
  0.7270780297061066  0.7887209677127203  0.8939452968346728
  0.6754766105148775  0.8855708110311085  0.0097941348548645
  0.6918868722546776  0.0090345247475412  0.0803104546483695
  0.7072141045147831  0.0700305900466418  0.1935157474075098
  0.6894692759136021  0.2021441860254498  0.2907216197980347
  0.7491446003713236  0.2921707191051937  0.5162835497894278
  0.7992520916542105  0.3839177330978600  0.6190289322102984
  0.8230733292578023  0.4950213118688609  0.7159513336050338
  0.8349712131503892  0.5992223610922451  0.7987688611148869
  0.8108675569442525  0.7095722682606507  0.9044132210297491
  0.8133402187202847  0.8197611298283718  0.0067568881039719
  0.8046844622560343  0.9248419965584418  0.1076095358420517
  0.8162630620839550  0.9965445568989750  0.2100681927274408
  0.7814460326948307  0.0878235226192103  0.3079095453516274
  0.8039693701037010  0.1948045618801828  0.4169299325272817
  0.9031171937689635  0.2716371847122190  0.5969715405515572
  0.9268029316668915  0.3847395050491329  0.6886703912511862
  0.9306775012452988  0.4966397862609213  0.7948323601865681
  0.9217596703346445  0.5977135814880228  0.8927890843635353
  0.8954134116741415  0.7187213997192430  0.0197913861341306
  0.8885582574831332  0.8330633795227129  0.1289364026626814
  0.8883854580446524  0.9390718204048341  0.2017678884209602
  0.9004240320608616  0.9916287963591870  0.3107336530362730
  0.8842966263641685  0.0899693986324337  0.4073384349952462
  0.8885999954716297  0.1939433971833537  0.5038686337907023
  0.0243278512883194  0.2804786849612810  0.6772535312231156
  0.0150901757007631  0.4162907906534414  0.7746716791196846
  0.0029010745822546  0.4911135534121271  0.9008402952497363
  0.9977990445138829  0.6140048213557918  0.0035931173300696
  0.9792287447357708  0.7219524489426234  0.1131457623511309
  0.0027786559797107  0.8143705221210880  0.2033509047683708
  0.9840966811574532  0.9392270583706903  0.2998273966399481
  0.9976585436761312  0.0116356898972043  0.3895669727844933
  0.0065019268215352  0.0932651356246907  0.4790937617171593
  0.9987941294208227  0.1706179278177800  0.5944960453742709
  0.0856403998550945  0.2743555658198602  0.7864843354616653
  0.0996193986324343  0.3753383340125893  0.9105897482226126
  0.0882024543766704  0.5127852578906840  0.9915866136847313
  0.1111845419553532  0.5948577349092048  0.1125830847258058
  0.0861109120137655  0.7240210220531651  0.2071746741837615
  0.1006305515554970  0.8240255468007049  0.2919342172712049
  0.0885806783498637  0.9236889068514245  0.3765766675723441
  0.1093948132047302  0.9922088593035383  0.4881432536340142
  0.1251730181587618  0.0948482452565287  0.5941403994022565
  0.1196211148847510  0.1872486265453048  0.6776102649096600
  0.2141846438436801  0.2816198487524346  0.8943445858805390
  0.1756846895802227  0.3949786872254677  0.0153296114658303
  0.1781334533351426  0.5063974355839349  0.1072446148621111
  0.1873062409998667  0.6179467821401090  0.1915147982611032
  0.1715600403024951  0.6853824081872943  0.2853132749173568
  0.1682734836752289  0.7811037802834733  0.3813927450980401
  0.1889805207625770  0.8991862192636901  0.4736873042611975
  0.2290775003396277  0.9915219585201314  0.5962887325091728
  0.2079635230720456  0.0950996209754109  0.7095698813566997
  0.1959903563827368  0.1994186102431712  0.8197894810487725
  0.4197335733369556  0.4074683942399133  0.0045850830955914
  0.3927867676493264  0.5257968871982968  0.1258781981614803
  0.4118549019607869  0.5932706901236244  0.2177913847756159
  0.4148015129284985  0.7076084268441818  0.3174423882624637
  0.3809359837884330  0.8094089168138368  0.4182340048906426
  0.4139489512294503  0.8479705551781933  0.5068057043879932
  0.3786689630032143  0.9852055898202252  0.6202539958338988
  0.3870149938867016  0.1050691781007984  0.7251316116469653
  0.4077259751845332  0.2125669723316577  0.8183619979169521
  0.3934410727709121  0.3184097418828955  0.8827572644115378
  0.5158372884119018  0.4009557279355178  0.1146151537381712
  0.4987987406602343  0.4800658660508077  0.2289061300547957
  0.4934136956029533  0.5888141167413821  0.3138457582755976
  0.4869789942489717  0.6805025743784796  0.4002232205769118
  0.4781165235701650  0.7589635366571557  0.4853503378164206
  0.5093915423629056  0.8710092134220915  0.5924529447991702
  0.4946631956708814  0.9920648806774466  0.6524630657066552
  0.5111767083276746  0.0594333260879409  0.7777976284925074
  0.5099138427749850  0.1764811574514340  0.8969917746682938
  0.4953871226735487  0.3054515591178770  0.9869515020604069
  0.6109725164153446  0.3964549173572465  0.2229281854820471
  0.5874773413938357  0.4950595403704199  0.3178237689625476
  0.6089810247701877  0.5918195141058717  0.3820986374133923
  0.6190541964407004  0.7030471376171690  0.5041333591450439
  0.6166129207988078  0.7940429434406582  0.5618226993614996
  0.5952262781325004  0.8926033627677370  0.6943611121677336
  0.5924543223293952  0.9925355626500050  0.7893243676130979
  0.5739323574695447  0.0932369764071908  0.8946639745505607
  0.5750083408051410  0.1897494901055126  0.0011936018656868
  0.5929115921749784  0.2861974727165659  0.0952653036272224
  0.7144375918127039  0.3967693071593530  0.3223224896979602
  0.7161107381243497  0.4972345043698780  0.4244103450618155
  0.7179760680161209  0.5932974079608755  0.4938170058415992
  0.7225573291672305  0.7043910754879334  0.5799082008785064
  0.7155871435040524  0.7989384349952431  0.6958941416474218
  0.6973570502196296  0.8918202943440647  0.8073589480595942
  0.6563238219444827  0.0192845990128134  0.8804693125933980
  0.6898661694516122  0.1083302549472478  0.9747316877235903
  0.6869342688946247  0.2146882076710597  0.0890762391885147
  0.6923029226101534  0.3146438536430765  0.2211186840556110
  0.8057720250871725  0.3963123556581962  0.4233036543947861
  0.8104648906398566  0.4867396653534399  0.4878282384639760
  0.8215333917493126  0.5965817135353007  0.6014221758819005
  0.8063990553819664  0.7154977878911382  0.6623737816419890
  0.8286043639904008  0.8136664366254607  0.8095305284608045
  0.7999832789928902  0.9353449209799365  0.8882509595616526
  0.7685580129511393  0.9995341380247282  0.9734584662409986
  0.7665930267626706  0.1194685767332331  0.0850873273558861
  0.7795512385092636  0.1899000095095786  0.1981539917583675
  0.7821857555585723  0.2900505664991186  0.3243975410949602
  0.8921368631979334  0.3798874699995451  0.5119862056785749
  0.9083588466240968  0.5106465457591796  0.6193180002717042
  0.9223411058280107  0.6016319087080575  0.6942384259385079
  0.9164303581940842  0.7114597228637436  0.8071155590273094
  0.8997741824027514  0.8160812634152990  0.8892745677670604
  0.8919064411538287  0.9002331567268911  0.9804108490694219
  0.8720242811212273  0.0157247280713690  0.0628073581488025
  0.8870851985690322  0.1146513621337704  0.1866092405923112
  0.8666444921432799  0.1933597482226119  0.3035246352397749
  0.8652630009509608  0.2867158348050509  0.4113389539464762
  0.0140004564597191  0.3808313942851953  0.5875571507494470
  0.0152327514377575  0.4952416750441486  0.6837529099307176
  0.0053780559706595  0.6286950029434379  0.7869894239913080
  0.9939963800208318  0.7296373952814363  0.9202602146447489
  0.9853286645836192  0.8087378449486025  0.0240219241045168
  0.9752666567042496  0.9103037042068536  0.1022244051985695
  0.9867888063216057  0.0012362034143933  0.1884711506588772
  0.9732003885341669  0.1021981302359265  0.3011444903319287
  0.9861300987184691  0.2263764669655401  0.4087660127700019
  0.0018014277951366  0.2805762726984540  0.4898425816238756
  0.0995324131685038  0.4050691604401564  0.7015594362179058
  0.1163857895213525  0.5106576411719459  0.8149871086355986
  0.0577437309242370  0.6201276497758457  0.8939933672961118
  0.1053760449214352  0.7251084771090888  0.0133234089571133
  0.0928533156726914  0.8167139962867367  0.1146754195534996
  0.0918206937463211  0.9380410229588350  0.2062102540415722
  0.0912027297015783  0.0123053407598590  0.2977247606756350
  0.0648613331522014  0.1120134949961482  0.3680414789657220
  0.1176187157541975  0.1901792374224485  0.4965511778290974
  0.1137164665126988  0.2819617099126006  0.5908531938595303
  0.1973034922791257  0.3573267400262665  0.7947754657428803
  0.1893390766653056  0.4877524416972321  0.9090770121813136
  0.1933040614952688  0.6293905864239449  0.0173593551600746
  0.2008237793777994  0.7065878893266344  0.1176391790064741
  0.2054314563238719  0.7947285029207976  0.2135821699950213
  0.2174411764705866  0.9151222356563906  0.3104794765203991
  0.2017608549562979  0.0389848227143048  0.4049988248879259