Li 
 1.0000000000000000
    22.0829999999999984   -0.0000000000000006    0.0000000000000000
    -0.0000000000000006   22.0829999999999984    0.0000000000000000
     0.0000000000000006    0.0000000000000006   22.0829999999999984
 Li 
 500
Cartesian
  0.1192727900000000  0.5685676800000000 -0.3540755500000000
 -1.0053383100000000  2.3723917999999999  2.1852951599999999
 -0.9584327200000000  4.1901310799999996  4.3282360799999999
 -0.7157609900000000  6.6007262000000004  6.6463647799999999
  0.1660684500000000  8.5752407900000005  9.0047564100000006
 -0.4513916900000000 10.8000183300000003 11.4264457200000003
  0.7131556500000000 13.7958751999999993 12.9598048600000002
  0.5335700200000000 16.3933791599999985 15.4786996800000001
  0.6387799700000000 17.6985054800000015 17.5159619299999996
 -0.2975440000000000 19.7466185900000006 20.4415167999999987
  1.9382773099999999  0.1581721200000000  1.9294615700000000
  1.5680286800000001  1.8861312800000001  4.5184578100000001
  1.6401936200000000  4.7738027299999999  6.3877517800000003
  2.2656169400000001  6.5734782699999998  8.6532998299999999
  2.4455414599999998  8.8025950200000000 11.0098086100000003
  2.4358515399999998 10.6516366500000004 13.3879305500000001
  2.0385051999999999 13.1502590900000005 15.3497580100000004
  1.4386434500000000 15.7174522700000008 17.7681329900000016
  2.2979096100000000 17.7427908599999995 20.2856044799999999
  2.3420167500000000 20.1462439300000007 22.2941398200000016
  4.9187372099999997 -0.4282096600000000  4.1673349000000002
  4.4620620300000002  1.6554891300000001  6.2305681899999996
  4.3504500500000001  4.2741081999999997  8.4346513600000002
  4.8598479899999996  6.2409114800000003 11.0356598199999993
  4.6028843999999998  8.8469650200000007 12.8696714500000002
  4.6548354700000001 11.2578087700000005 15.6390218799999996
  3.7222684500000001 13.2677132600000007 17.7663142699999987
  4.4165024099999997 15.2461164199999999 20.0378814799999994
  4.4536109499999998 17.9744306400000013  0.2465085800000000
  4.9403960800000002 19.8419154599999992  2.0980145000000001
  7.5271036000000002  0.5512346800000000  6.6454428099999996
  6.7277615199999996  2.7141250299999999  8.2092593100000002
  6.5762466200000000  4.2355113700000002 10.7406690499999993
  7.1715411600000003  6.0369576599999997 13.6263653500000004
  6.4159671300000003  8.6295348399999998 15.0204825999999994
  6.6025439700000002 10.6182120599999994 17.7760298100000007
  6.5565186100000004 13.0957578199999993 19.7447226399999991
  6.2792538999999996 15.1832664000000008 -0.1679692300000000
  7.1129274000000002 17.4992442100000005  2.0436187800000001
  6.7957396900000004 19.5076801899999985  4.9070533200000002
  9.3137555800000005  0.5340308600000000  9.1314267699999991
  8.4857981099999993  2.2459597800000002 11.0381177099999999
  8.9737216800000006  3.8911569699999999 13.3030923899999998
  9.0385752600000000  6.6714683800000003 16.0926672999999987
  8.7388554700000007  9.4992910100000003 17.4277284500000000
  8.7122929800000009 11.5756083699999994 19.8653071899999993
  9.1861796699999996 13.0996146099999997 -0.3049016200000000
  9.0603105199999998 14.6034072800000008  2.4273015099999999
  9.5303123000000003 17.2815121699999992  4.2622801299999997
  9.3143855900000005 19.4450910599999993  6.1595990599999997
 10.7409629899999999 -0.2244917000000000 11.4745545000000000
 10.5297773100000001  2.1326611099999999 12.9721955300000005
 11.1524046200000004  4.1259012000000004 15.5239084300000005
 11.2614373000000008  7.0302285900000001 17.6388124399999988
 10.6012560499999999  8.9549064900000008 19.7773787500000005
 11.2997224700000007 11.1440665100000000  0.0188204300000000
 10.9217536800000001 12.6394671499999998  2.6033690200000001
 11.3902628299999993 14.8173208499999998  4.5631578099999999
 10.8501024000000008 17.2278150799999992  6.9958717500000001
 10.5911264200000002 20.0656279499999997  8.8674728700000003
 13.0325285799999993  0.0197936000000000 12.4449158600000001
 13.2530148000000008  2.2387959799999999 15.2766457599999992
 13.4157794100000007  4.4193803300000001 17.8810414699999995
 12.7041637600000001  7.1532916100000001 20.0822217499999987
 12.6252870799999997  9.0004013399999998 -0.0378797100000000
 13.2225782400000007 11.2374815100000003  2.3224718200000001
 13.1449111500000004 13.2046543199999995  4.8976843900000002
 13.2788255599999996 15.4205770599999994  6.8678843699999996
 13.7512496399999993 17.4271266400000009  9.2099772000000009
 13.0728053299999996 19.4661754999999985 10.6019361300000003
 15.0826156299999994  0.2131318800000000 15.5252907499999999
 15.3115839099999995  2.3517993200000000 17.5089316000000004
 14.6721659899999999  4.9802734900000001 19.5308394599999993
 15.4407540500000007  6.4619427700000003 -0.0771169600000000
 15.7198043399999996  8.9933324100000007  2.1327529699999999
 15.9656828199999996 11.1074670999999991  4.9197860300000000
 15.9722788599999994 13.1267170899999996  6.7542701999999997
 15.8249312000000000 15.3008385199999992  8.3047157200000008
 16.1440467000000005 17.5993495499999995 10.7309850600000001
 16.0218637100000016 19.7362279799999989 13.2429409000000007
 17.6607707299999994  0.2324190200000000 17.6217076800000001
 17.5001096099999991  2.3796970900000001 19.8998109999999997
 17.4928050199999987  4.6387945899999998 -0.5567097700000000
 17.3243119099999987  6.5165635699999997  1.9429524600000001
 17.5743425199999983  9.0269927699999997  4.6584810799999996
 18.4146711600000010 11.1481256599999998  6.8080922499999996
 17.9238976799999996 13.4358245099999998  8.6225053599999999
 17.6758161800000018 15.9550826200000007 10.6060343499999998
 18.3134269900000000 18.4072437399999984 13.2008343299999993
 17.6971512599999983 20.6758426100000001 15.7268102899999995
 20.2007282900000007  0.6955587300000000 19.6392284600000018
 19.2444317799999993  2.3321571900000002 22.0021883500000008
 19.4725431299999983  4.2079912200000003  1.7346194600000000
 18.8978406099999994  6.8594192200000004  4.0297015900000002
 20.0778944800000012  8.6484698899999994  6.6575561199999997
 20.1636666099999999 11.0617512900000001  9.0157272099999997
 19.6753263700000005 13.2524531099999994 11.1700916499999998
 20.0532805900000000 15.9936190200000006 13.1762927100000002
 20.0953645799999983 18.3530179199999992 15.5828971000000003
 20.4030727499999998 20.4667520799999991 17.8182528699999985
  2.3313784300000000  2.8435623600000000  0.4824423500000000
  2.0988736200000000  4.0834581700000001  2.3715444799999998
  2.1050936500000001  6.2950362100000001  4.4701362900000001
  2.5885099800000000  8.4798945600000000  6.7877119199999996
  2.4083078800000002 11.7840988200000005  9.3317309999999996
  2.3287201799999999 13.7298198700000000 11.5228588900000002
  2.0793965600000002 15.9563697799999993 13.7360345299999995
  2.7549357099999998 18.1628188699999988 15.2106742199999996
  2.6881091700000002 19.4091895100000009 18.1795970900000015
  2.2738535299999998 22.2730532399999994 19.9150329399999997
  4.9126785599999998  1.9545066499999999  2.7164797900000002
  4.7212777399999997  4.1569683399999997  4.5202154300000004
  4.8304600799999999  6.6030817099999997  7.0304622900000000
  4.7428454799999997  8.4024878399999992  9.3112498099999996
  4.4101190700000004 10.6804904500000006 11.6021914499999994
  4.0344312499999999 13.2973216599999997 13.4192150699999999
  3.4608671200000001 14.7984073499999997 15.4374386500000007
  4.6313396300000003 17.0512626999999988 17.5273365400000003
  4.6626262199999999 19.5615065100000010 20.1203783999999999
  3.9986730200000000 21.8603114699999992 22.5205726900000016
  7.0978171500000000  1.8090168799999999  4.1096633100000002
  6.6050887200000004  4.4753518699999999  6.4934383799999997
  6.5760814300000003  6.5638191199999998  9.0024545200000006
  6.6509217999999999  8.6148112000000001 11.8201493600000003
  6.5269593800000001 11.7336464899999999 13.2993382400000009
  6.8599529099999996 13.8834412999999994 15.3258314200000001
  6.2541384799999999 15.0842520600000007 17.8318407000000008
  6.6395100899999999 16.9307476200000018 20.1970405200000016
  7.1142551899999997 19.4815081399999990 -0.4604471600000000
  7.5019006700000004 21.8168855300000004  2.0667850500000000
  9.1531415099999993  2.1932722500000001  6.3651576299999997
  8.7707546300000008  4.5049948999999998  8.8044060500000008
  8.8903096099999992  6.3755944900000001 10.7640176400000005
  8.7920647200000008  9.0415794300000005 13.6221975999999998
  8.2956886099999991 11.8813947700000000 15.2463346699999995
  8.5349954300000004 13.7243154100000009 17.3088740899999998
  8.6946550699999996 15.2408044000000000 19.8344717700000004
  8.6161934000000002 16.7869100600000003  0.2600508900000000
  9.2127280500000008 19.7169202900000009  2.4621888599999999
  9.1361918000000006 21.9342968200000001  3.7972086900000002
 10.1564363199999992  2.2495436700000000  8.6712373700000001
 10.8769203099999991  4.8961962100000003 10.9861734099999993
 10.6500971700000004  6.6285057199999997 13.0832472400000004
 11.0629743200000004  9.4004347300000006 15.3971810100000006
 11.4483713799999993 11.4399769700000000 17.4141384300000013
 11.5416370100000005 13.4928018000000005 19.4979867499999990
 10.9206547999999994 14.9874487700000003 -0.1220134500000000
 11.1966203499999999 16.6373821000000000  2.0083252800000002
 11.7618192300000004 19.1378099500000012  4.2456236399999998
 10.7936773200000005 21.6467973600000008  6.4938629199999998
 12.4881430800000004  2.0182577199999998 10.6686524100000000
 12.8634268600000006  4.1957459600000000 13.7053359900000000
 13.1594641899999996  6.6253386499999998 15.5168413899999997
 13.2739799600000001  8.8445556700000001 17.9374528099999999
 13.4107330600000001 10.9454653499999992 19.7930028600000014
 13.2753391700000005 13.1681356600000008 -0.1106082900000000
 13.2367252700000009 14.3594941499999997  2.1502423799999999
 13.3652467300000009 17.1225554299999985  4.8049466900000004
 13.2310967900000005 18.8845836600000005  6.5547640100000004
 12.7045318399999996 21.6990293899999998  8.1889143000000004
 14.8817085700000007  1.9457630299999999 12.9162255699999999
 14.8561623100000002  4.7953224800000003 15.1822574299999999
 15.6634312700000002  6.6113516700000003 17.3065454699999997
 15.6258950599999995  8.5118752799999999 19.4548633500000001
 15.8230211399999998 10.7314407700000007 -0.0521646000000000
 15.6359495200000005 12.5351975699999993  2.3529138500000002
 15.5202552199999992 15.4243316299999993  4.7228107200000000
 15.3356497100000002 17.9645219699999998  6.8217291500000004
 15.8124512999999993 20.0632577099999985  8.7523425800000005
 15.1066984400000006 21.9555484999999990 10.3763205599999999
 17.3293475599999987  2.3108914299999999 15.4769035800000001
 17.5767947500000012  4.6207240199999999 17.1461174700000001
 17.9772159900000013  6.6265735299999999 18.8651093799999998
 18.4021742500000016  8.4223326499999995 -0.1994906300000000
 17.9537098700000008 10.5356811199999996  1.9145785300000000
 17.9583179199999989 13.0009081000000002  4.4464716400000004
 17.1959836599999996 15.4543847200000002  6.4397614499999998
 17.5726524300000015 17.6966122599999984  8.1654411699999994
 17.7755794199999997 19.7542724199999995 10.4362700900000007
 17.3173846299999994 21.9995301199999993 13.1604227199999997
 20.0607514900000012  3.0058351000000001 17.7077337399999983
 20.5206373699999993  4.7115047199999998 20.0573807700000017
 19.6449862199999998  6.6953445499999997 -0.0581396400000000
 19.6543266400000007  8.3614383500000002  3.0915506800000001
 20.0600125499999997 11.0693565599999992  4.6815317299999997
 20.0520662799999982 12.5116800999999995  7.0205111599999999
 19.5755521600000009 15.1832902300000008  8.7379865199999998
 20.1009680899999985 17.6671187500000002 10.4378385199999997
 19.9245592000000009 20.3489311700000002 13.4874380100000000
 20.1540979699999987 22.4789478500000008 15.7252800599999993
 22.3069303000000012  2.5064597700000002 20.3634820999999988
 21.7227088600000009  4.3185589300000000 22.4952811399999995
 21.5362372999999998  6.6442303000000003  2.8379347300000002
 22.3118939800000007  8.7469401199999997  4.9199099000000004
 22.4521611000000014 11.0694380100000007  7.2431264100000003
 22.1549288400000002 13.2632287000000009  8.6341553999999991
 22.2332262900000011 16.0280498599999994 10.4333148999999992
 22.4585709599999994 18.1278841700000015 13.3118554899999992
 22.5725177799999983 19.8032965400000016 15.4601115399999998
 22.3870055599999986 22.1810734899999993 17.8855760100000012
  4.8172586199999996  4.4931477600000003  0.7651827600000000
  4.1766859900000002  6.7527526299999998  2.2066294900000001
  4.1829980899999999  8.8963849199999991  3.7940105300000000
  3.8567688400000000 11.4847974500000003  6.6048458300000004
  4.0113234000000002 13.2982529700000001  8.6441453599999996
  3.7650588699999998 15.9514022400000002 10.8779024700000004
  4.6893088399999998 17.7733884400000015 13.3760395400000007
  4.7542672899999996 20.0132138600000005 15.6314282900000006
  4.3375409200000004  0.2572463200000000 18.0316965200000006
  3.8939355299999998  1.9975841100000000 20.4634132099999988
  6.4498120500000002  4.5406073200000003  2.3721104700000000
  6.9313966599999999  7.1863929999999998  3.9770066499999999
  6.0113809600000003  8.5513155199999993  6.8497142499999999
  6.5718262000000003 10.7205070500000001  9.1430571100000009
  6.3720847100000002 13.1864521099999994 10.9205322799999998
  5.9654843399999997 15.4562734400000004 12.7828848500000003
  5.8727481700000004 16.9147717499999999 15.1767493699999996
  6.7603769099999997 19.6166400100000011 17.8968681899999993
  6.6866272100000002  0.0487590700000000 19.7802438999999985
  6.8427325200000002  2.1272315399999999 21.8913724199999997
  8.7518114199999992  4.5232837300000002  4.7638801700000002
  8.2213009199999991  7.0561976599999996  6.9718474199999996
  8.6050185100000007  8.4316628300000005  9.1038796400000006
  8.6189917000000005 11.1754317499999996 10.9738717999999995
  8.8137833499999996 14.2646891300000007 12.9499042000000006
  8.5773639100000008 15.6552695899999996 15.9671131200000005
  8.2709270499999992 17.3740530299999989 18.0688871199999994
  8.4465339999999998 19.6204420500000012 20.5162923399999997
  9.3253088099999992 -0.0843016500000000  0.1923559500000000
  8.9622715999999993  2.0116143800000001  1.6840592500000000
 11.0234796700000004  4.3978139299999999  6.8835331599999998
 11.3636190900000003  6.7732856999999997  8.9341840500000007
 10.6246524499999992  8.7232419900000000 11.6281238600000005
 10.9287642500000004 11.4901000599999996 13.1967143399999998
 11.1147755600000000 13.0844338699999998 15.4429972400000004
 11.6566708299999995 15.3741814399999992 17.5526897099999992
 10.9820909600000007 17.0980624600000013 19.8244497200000005
 11.1500338499999998 19.3989522100000009 -0.1286904000000000
 11.4246104400000004  0.1202723800000000  1.9272104000000001
 10.6596595999999995  2.7645984100000001  4.6429486500000001
 12.9576785799999996  3.8980569300000001  8.6635902300000005
 13.2802585299999993  6.5005210199999999 11.1932901099999995
 13.3916569699999997  8.6232748400000006 13.7202286299999994
 13.8620275100000008 11.2944253799999998 15.7286243100000007
 13.8219695100000006 14.0789054799999995 17.8270979199999999
 13.4658956300000003 15.3379357299999999 20.1393535399999983
 13.6851434199999993 17.5392039299999993  0.0829612400000000
 13.4006539199999999 19.2864273699999984  1.7129026500000000
 13.1046397100000007 -0.4522184800000000  4.0953659499999997
 12.5694645099999995  1.7592336200000001  6.2918972100000001
 14.7468620599999998  3.8364046300000001 11.2536507300000004
 14.9443481699999996  6.7360073099999997 13.4571291599999991
 15.8027734199999994  9.2793777199999994 15.5745315899999994
 15.5342964899999991 11.2986358700000000 17.9630450599999989
 15.8423830799999994 13.6123921200000009 19.7739675099999985
 15.9640555200000005 15.6618618000000005  0.3408548200000000
 15.6328364299999993 17.4075891700000014  2.9672875900000002
 15.2968860600000003 19.6063846300000009  4.3847510999999999
 14.8938383900000009 -0.6625919700000000  6.6745618699999998
 15.4113020100000000  2.3923483499999998  8.9250792800000003
 17.5040778400000008  4.1157973800000001 13.1794698700000001
 17.4488404700000004  6.4581650200000000 15.2658174199999994
 17.9492933599999986  8.9896636599999997 17.1467237499999996
 17.9374595200000009 10.9224124800000002 19.8472173800000000
 18.0651327500000001 13.2370145499999996 -0.1180519500000000
 17.6141073000000006 15.4279571299999994  2.5974972900000002
 17.7522092899999997 18.0387668499999982  4.6731427999999999
 17.6759231999999997 20.1247255600000017  6.7739054500000000
 17.8684699199999990  0.3262042500000000  9.0300421600000007
 17.3823488799999986  2.0402323600000001 10.7921468300000001
 19.8045478499999987  4.5380229300000003 15.2053965299999998
 19.4405374299999991  6.7405481500000004 16.8577088599999989
 20.1057086600000012  8.4371050899999993 19.3853692899999999
 20.0255307299999998 10.8237544600000000  0.2630694000000000
 20.5250611899999988 13.3400724999999998  2.0802345700000000
 20.3242579300000017 15.7397018699999993  4.7865465399999998
 19.7423996200000005 17.9797871499999999  6.6991885599999996
 20.0826613899999984 19.8294262600000017  8.0700793599999994
 19.6420883300000000 -0.1996681100000000 10.6850271800000005
 19.5931899099999995  2.0860992100000000 12.8926609400000007
  0.0977123000000000  5.1786240399999999 17.0809621699999994
 -0.4804935500000000  7.0887378200000004 19.6301158999999998
 -0.2605249100000000  8.3710602299999994  0.1029975500000000
  0.1562992800000000 11.2241949099999996  2.3768824799999999
  0.0757857800000000 13.4223901100000003  4.7147899799999999
 -0.2464462100000000 15.7092186399999996  6.7405771999999997
  0.1990300300000000 17.5533414599999986  7.8977010300000003
 -0.2205289300000000 19.2631477099999984 10.7090071499999997
  0.5375034100000000  0.0618410200000000 12.8747525199999995
  0.2583382200000000  1.9077934000000001 15.4693890100000004
  2.2665972499999998  4.7077816199999996 20.7314141899999989
  1.8800669000000001  6.1581053800000003 22.4014729400000014
  1.7278991200000000  9.1506574300000008  2.1171080600000001
  2.1116617500000001 11.2716928400000000  4.9207982499999998
  2.2347049499999998 13.4847906000000002  6.2053474499999997
  1.7961073700000001 15.1312360300000002  8.3144504799999996
  2.3556376700000001 17.9745860099999994 10.6114564399999995
  2.3637966600000002 20.0501821400000004 12.9096076300000000
  2.5424213700000000  0.1367266200000000 15.4398854100000005
  1.7627249400000000  2.6089686799999998 17.4597644900000013
  6.9360095700000004  7.3616415000000002 -0.0602056900000000
  6.7115546300000002  9.6880467899999996  2.1084019899999999
  5.8734133000000002 11.5250164399999999  4.2706059800000000
  6.9901826299999996 13.4367065100000005  7.3545610899999998
  6.5305962199999996 15.2375200000000000  8.6669138599999993
  5.9980887400000000 17.8419738499999987 10.6236841599999998
  6.5200764900000001 19.8124816400000014 13.3044940300000007
  7.0704813499999997  0.4034070900000000 16.3155995400000009
  6.2585475600000002  2.5356963900000000 18.3841043999999982
  6.7167773999999998  4.2313679899999999 20.4606736900000001
  9.2606184599999999  7.0834683399999996  2.2036730800000002
  8.1617911500000009  9.5737892599999999  4.1602272100000004
  8.7837418300000003 10.8744004600000004  6.9353133099999997
  8.6338157899999999 12.7880963399999992  8.8881278399999992
  8.5817388999999995 15.8155469600000007 10.4745742699999997
  8.5582994299999999 17.1560765999999987 13.1413901699999993
  8.5531221500000001 19.3274371000000009 15.0197145899999995
  8.9963576199999995 -0.3830474500000000 17.4501409699999996
  9.6935983300000004  2.2143290800000002 20.2842168899999997
  8.9875137800000005  4.6391784600000001 21.9180018399999987
 11.0315852599999999  7.1409418699999998  4.6173262599999996
 10.9424874200000009  8.8859811099999995  6.8866377400000003
 11.0953659600000005 10.7766600399999994  8.4502453200000005
 10.7779102499999997 13.0719714600000003 11.0538257000000009
 10.8569154999999995 15.6536208099999996 13.0370571999999996
 11.0251761800000008 17.6545053699999990 15.6437655099999997
 10.9528166000000002 19.7198033300000013 17.9845325600000017
 10.8232939500000001 -0.1119834500000000 20.1963406100000000
 11.4518160800000004  2.4856030100000002  0.1132781600000000
 10.8660391199999999  4.7705868400000000  2.1450132900000001
 13.6149600599999996  6.6850273800000002  7.1475189600000002
 13.4854904900000001  8.6920018999999993  9.2319046999999994
 13.1833762399999994 11.0465455499999994 11.1984502300000006
 14.0835806600000009 13.3231939399999995 13.3674964000000003
 13.9694942500000003 15.6099827100000006 15.0887302800000001
 13.7359092599999997 17.3650731699999987 17.3553231200000013
 13.3232752699999999 19.1783601899999994 19.2971392100000010
 13.1383093500000001 -0.4016880100000000 -0.6075524900000000
 13.4070999799999999  2.3482412899999998  2.1969266699999999
 12.8260883999999997  4.6780615499999998  4.1574693299999996
 15.4092368000000004  6.0817071900000004  9.1666391199999993
 15.3199214999999995  8.6441373800000001 11.2309096099999994
 15.7429641599999997 11.2419179299999996 13.2464838900000004
 16.1024424999999987 13.4984505099999996 15.9243176700000006
 16.3425102500000001 15.7097803999999996 17.3689494099999990
 16.0560641299999993 17.4173251299999983 19.7409939899999998
 14.9165499900000000 19.5560602199999991  0.2162838800000000
 15.2789377999999996  0.1995094100000000  1.7734957700000000
 15.6174090700000008  1.5464855200000001  4.2734082500000001
 15.2255500200000000  4.4639500600000002  6.4200055300000001
 16.5433602099999995  6.4520059900000000 11.4010896299999995
 17.6498839399999987  8.4780552999999994 13.6700159100000000
 18.1759283300000014 10.9315556300000001 15.8103532999999992
 18.4386693000000008 13.2326274000000002 17.6392127599999995
 17.9063882599999999 15.6694844000000000 19.9721571599999983
 17.9609920500000015 18.1027850299999997  0.1492123600000000
 17.7698469800000005 20.4232858099999994  2.3763413799999999
 18.0255371999999987 -0.0763065500000000  4.6389358999999999
 17.2566727399999991  1.9394068499999999  6.7995664900000001
 17.7540556000000009  4.3018691400000000  9.2070637000000008
 19.9435369899999984  5.9985639500000003 13.1829225300000008
 20.4665891400000000  8.4962024899999999 15.2079082499999991
 20.5521512599999987 10.9672964000000004 17.5522830100000000
 20.3552187999999994 13.1993090199999994 19.7154613500000018
 19.7734143700000011 15.8715246699999994  0.4370531800000000
 19.6220320000000008 18.3965386100000003  2.8473025800000000
 19.6182160699999990 20.7375230100000003  4.4556402799999999
 19.8840639000000010 -0.1848612900000000  6.8619312600000004
 19.5279224000000013  1.9867942300000001  8.9952546600000005
 19.6229537000000001  4.2828520399999999 11.1269310400000006
  0.5372319400000000  6.1938107999999996 14.9557897299999993
  0.3332363500000000  9.1929495299999999 17.1070746900000010
  0.0640644300000000 10.8452605999999996 19.8932562399999995
 -0.0486037000000000 13.5590684699999997  0.0793468100000000
 -0.4586916300000000 15.9428759299999996  2.4985978700000002
  0.0613610600000000 17.9837442400000000  4.4905980300000001
 -0.3511929900000000 20.7409511299999991  6.6210883999999997
 -0.0517063800000000  0.2569509400000000  8.6028074599999993
  0.1435820500000000  2.0595739900000001 10.5798275400000001
 -0.0266292400000000  3.7677556999999999 13.1282561700000002
  1.8911969500000001  6.0585939599999996 17.3679335799999990
  2.1998951800000000  8.2885964300000001 20.1085534099999990
  1.9477747999999999 11.3238368499999993 -0.1857928100000000
  2.4552882399999998 13.1362433599999999  2.4861722600000000
  1.9015872700000001 15.9885562300000004  4.5750383299999999
  2.2222244700000000 18.1969561499999983  6.4467833199999998
  1.9561271200000001 20.3978221300000016  8.3159425500000008
  2.4157656599999999 -0.1720517600000000 10.7796674699999997
  2.7641957599999998  2.0945337999999998 13.1204024399999994
  2.6415930799999998  4.1350114199999997 14.9636674799999998
  4.7298394899999998  6.2190111200000002 19.7498114899999990
  3.8796450000000000  8.7223143499999995 22.4215238100000001
  3.9337210499999999 11.1827745699999994  2.3682828300000001
  4.1362837199999998 13.6461187899999992  4.2292212899999999
  3.7885603699999999 15.1352997200000008  6.3005730499999997
  3.7159833400000002 17.2491147799999993  8.4222959900000003
  4.1732568399999996 19.8567292799999997 10.4604367400000005
  5.0587184399999998 -0.1872205900000000 13.1678440800000001
  4.5924584800000003  2.1000849300000000 15.6694316899999997
  4.3280550399999997  4.4037611700000001 18.1034111099999997
  9.2689765000000008  8.9981245500000000  0.1012523900000000
  8.6739101900000009 11.6111726599999994  2.7797682500000001
  9.0949918000000007 13.1011966500000003  4.8094871499999998
  9.1600618100000002 15.6261168900000005  7.0100802599999996
  8.4122093299999996 17.8741771100000015  9.2358615299999993
  9.1412346899999992 18.7257337700000015 11.1917903699999997
  8.3621467099999993 -0.3267049600000000 13.6970689900000000
  8.5464521100000006  2.3202426599999999 16.0130813799999991
  9.0038127100000001  4.6941164500000001 18.0718880000000013
  8.6883592099999998  7.0314423300000000 19.4939286699999990
 11.3912348399999992  8.8543053399999998  2.5310464399999999
 11.0149725899999993 10.6012945199999997  5.0549340699999998
 10.8960546399999991 13.0027821400000008  6.9306558799999998
 10.7539571299999999 15.0275383500000004  8.8381293799999998
 10.5582471899999994 16.7601917799999995 10.7179915099999992
 11.2488934300000007 19.2344964599999990 13.0831383799999994
 10.9236473499999995 -0.1752312400000000 14.4083418800000000
 11.2883152500000001  1.3124661399999999 17.1761050299999987
 11.2604273900000003  3.8972334000000002 19.8082693600000006
 10.9396338300000000  6.7452867799999998 21.7948500199999984
 13.4921060799999992  8.7549139399999998  4.9229231200000001
 12.9732621300000002 10.9323998299999996  7.0185022899999998
 13.4481279699999998 13.0691503299999994  8.4378842100000000
 13.6705738199999995 15.5253899400000002 11.1327769700000001
 13.6166631299999992 17.5348503200000003 12.4067306700000000
 13.1443819000000008 19.7113600600000005 15.3335764399999999
 13.0831687999999993 -0.1648371700000000 17.4306500100000008
 12.6741482500000000  2.0589521500000001 19.7568645499999995
 12.6979091900000007  4.1902379900000000  0.0263583100000000
 13.0932666900000001  6.3200987900000003  2.1037436999999999
 15.7769253400000000  8.7618566100000006  7.1178475399999996
 15.8138734299999992 10.9804295599999993  9.3722536499999993
 15.8550655099999993 13.1017866600000001 10.9049609400000005
 15.9562334999999997 15.5550681199999996 12.8061127999999993
 15.8023108899999993 17.6429574600000016 15.3674303299999995
 15.3997357400000006 19.6940675600000006 17.8289076500000014
 14.4935989599999999  0.4258618000000000 19.4434038300000012
 15.2343146199999993  2.3922570200000002 -0.5580001400000000
 15.1695694599999999  4.7409596900000004  1.9670705900000001
 15.2881254400000000  6.9482802200000000  4.8829639000000000
 17.7938636300000006  8.7517657500000006  9.3478145999999995
 17.8974961800000010 10.7486720299999998 10.7727109900000002
 18.1419218899999990 13.1743139800000009 13.2812059100000006
 17.8077103399999999 15.8003376499999995 14.6272002200000006
 18.2980701699999990 17.9681959199999994 17.8768626600000005
 17.6660307500000009 20.6552218900000000 19.6152459400000012
 16.9720666000000016 -0.0102876300000000 -0.5861166900000000
 16.9286738099999994  2.6382245800000002  1.8789834500000000
 17.2148299999999992  4.1935619099999997  4.3758346000000001
 17.2730080400000006  6.4051866600000000  7.1636708999999996
 19.7010583500000003  8.3890550000000008 11.3061913799999996
 20.0592884100000006 11.2766076700000006 13.6763993999999993
 20.3680586400000010 13.2858374399999999 15.3308671600000004
 20.2375316000000005 15.7111650600000008 17.8235328899999992
 19.8697132699999983 18.0215225399999994 19.6378502799999985
 19.6959699400000012 19.8798488000000013 -0.4325872200000000
 19.2569121999999986  0.3472491700000000  1.3869748900000001
 19.5895024400000004  2.5318460300000001  4.1208918600000004
 19.1381103199999991  4.2699633199999996  6.7027345199999999
 19.1076028499999993  6.3315457799999999  9.0835981199999996
  0.3091720800000000  8.4098996800000005 12.9750245599999996
  0.3363848500000000 10.9364219100000000 15.0993155100000003
  0.1187636100000000 13.8834717500000000 17.3790874500000001
 -0.1325779400000000 16.1125825999999996 20.3221063199999996
 -0.3239871000000000 17.8593578300000004  0.5304761500000000
 -0.5461864200000000 20.1022366999999988  2.2574215400000002
 -0.2917427900000000  0.0272990800000000  4.1620084200000003
 -0.5918158200000000  2.2568413100000000  6.6501737800000003
 -0.3062890300000000  4.9990715200000002  9.0267798599999995
  0.0397809300000000  6.1959658299999996 10.8171937299999996
  2.1979742799999999  8.9451422699999998 15.4925370299999994
  2.5701473899999998 11.2768526900000001 17.9973603199999985
  1.2751548100000001 13.6942788899999996 19.7420555299999982
  2.3270192000000001 16.0125704999999989  0.2942208400000000
  2.0504797699999999 18.0354951800000016  2.5323772899999999
  2.0276763799999999 20.7147599100000015  4.5537410400000002
  2.0140298799999998  0.2717388400000000  6.5746558899999998
  1.4323328200000001  2.4735940099999998  8.1274599799999994
  2.5973741000000001  4.1997280999999997 10.9653396599999997
  2.5112007300000001  6.2265604400000001 13.0478110800000007
  4.3570530200000004  7.8908464000000000 17.5510266100000010
  4.1811748299999998 10.7710371699999996 20.0751476599999990
  4.2687335900000001 13.8988323200000004  0.3833466400000000
  4.4347915200000001 15.6035803600000005  2.5978259900000000
  4.5365428500000000 17.5499895300000013  4.7165350600000000
  4.8017535000000002 20.2086443299999985  6.8563182800000000
  4.4554849599999997  0.8609018400000000  8.9435890499999999