Li                                      
   1.00000000000000     
    21.6720000000000006    0.0000000000000000    0.0000000000000000
     0.0000000000000000   21.6720000000000006    0.0000000000000000
     0.0000000000000000    0.0000000000000000   21.6720000000000006
   Li
   432
Direct
  0.9918167926356602  0.0203993170911758  0.9968274935400530
  0.9251084385382029  0.0740956072351437  0.0843722835917333
  0.8387291786637121  0.1520298814138030  0.1559565979143613
  0.7579474418604661  0.2498887596899237  0.2517676430417097
  0.6587321622369871  0.3354288524363227  0.3166175096899195
  0.5785596857696547  0.4221198043558516  0.4258254189737940
  0.4976848744924354  0.5006758785529684  0.4968639161129573
  0.4311973800295306  0.5828159168512386  0.5916413436692523
  0.3498227833148775  0.6820886346437831  0.6750488630490921
  0.2599174533960849  0.7552235414359529  0.7552244624400117
  0.1400223232742732  0.8365182728866714  0.8105194089147290
  0.0780706012366181  0.9059825632152112  0.9194575932078237
  0.0750030389442600  0.9178698140457726  0.0689375166112924
  0.0108204162052417  0.0059680643226301  0.1696512827611656
  0.8958366943521625  0.0772688270579565  0.2300409436138793
  0.8259133845514981  0.1715783314876305  0.3437707041343643
  0.7386523421926938  0.2432908600959749  0.4187464281100048
  0.6678143323182013  0.3485205763196717  0.5050468969176833
  0.5661658757844208  0.4027040346991484  0.5998175073827952
  0.4966241136028060  0.4904565591546728  0.6420088501292014
  0.4427660963455153  0.5785057511997067  0.7278901564230367
  0.3478204125138404  0.6875515056293864  0.8433518461609424
  0.2462737541528242  0.7570239977851614  0.9285779074381679
  0.1417310400516811  0.8271361803248425  0.0110059002399439
  0.1696266680509382  0.8345759043927643  0.1778153460686624
  0.0854783697858963  0.9135795888704337  0.2425923122000739
  0.0007803008490228  0.0119118152454760  0.3100108665559276
  0.9111019190660770  0.0682564110372823  0.4161880574012571
  0.8351591449796985  0.1356662246216302  0.4867369882798087
  0.7362049533960899  0.2406310797342215  0.5569969518272444
  0.6620729581949050  0.3381300909006981  0.6831195819490574
  0.5700792469545988  0.4271027427094864  0.7663963565891478
  0.5120525913621279  0.4982309966777407  0.8437947743632321
  0.4315058725544461  0.5868218415466941  0.9483616482096693
  0.3544013473606498  0.6763987301587306  0.0151578303802111
  0.2417016426725738  0.7411625807493536  0.0866397568290864
  0.2399527224067910  0.7472837324658528  0.2271796133259514
  0.1506341749723177  0.8184871170173480  0.3299946908453322
  0.0773505292543391  0.9518095275009202  0.4113765674603158
  0.0108477491694359  0.0192826130490928  0.5068692455703214
  0.9095370584163902  0.1107207548911049  0.5884878142303407
  0.8223358947028458  0.1764772559062351  0.6646271746954611
  0.7349022434477632  0.2543353050018453  0.7421255227943888
  0.6530422314507192  0.3477900304540427  0.8279463607419686
  0.5872341588224401  0.4150628926725730  0.9329332636581782
  0.5119953949796994  0.4842951439645660  0.0156115988372107
  0.4155711923218917  0.5750021290143934  0.1166115928386873
  0.3070809306939850  0.6537233582502751  0.1785114156515348
  0.3224036715577725  0.6794796456256904  0.3354387061646378
  0.2610737301587278  0.7489376241232932  0.4056437153931327
  0.1424539622554448  0.8445157336655598  0.4758598200442989
  0.0824968360095966  0.9166251024363206  0.5827627260981885
  0.9882627214839417  0.9963201467331118  0.6710446479328169
  0.9205347997416027  0.1013145570321186  0.7327103492986353
  0.8126572397563692  0.1849272033038005  0.8257972282207433
  0.7245616320598032  0.2669500964378031  0.9047127113325928
  0.6715471926910297  0.3458457401255046  0.9993429106681404
  0.5934610109819118  0.3951175069213733  0.0964597129937275
  0.5081487472314521  0.5048891339055004  0.1605297845145799
  0.4058512684569919  0.5537181538390570  0.2635447660575849
  0.4032164285714259  0.5858919029162024  0.3978625263012177
  0.3574637200073809  0.6652976730343312  0.4983504212809180
  0.2538055601698019  0.7544132295127355  0.5820976661129578
  0.1776071262458458  0.8391228289959400  0.6567040997600557
  0.0813507387412358  0.9214601485788094  0.7428750281469192
  0.9971183947028450  0.0062643170911798  0.8357361115725368
  0.9037077519379864  0.0994596594684367  0.8923549155592454
  0.8328607082871926  0.1699469006090837  0.0047366717423429
  0.7391997249907689  0.2631797683647079  0.1059031953672971
  0.6682436189553371  0.3473636028054656  0.1944770071982305
  0.5663576767257297  0.4032997720561085  0.2555607092100374
  0.5059424783130311  0.4920350876707289  0.3551064359542266
  0.0725460548172734  0.0762349155592474  0.9108185668143207
  0.9773023029715731  0.1716278059246932  0.0051254844961264
  0.9266254748062011  0.2635810903469888  0.0976080214101174
  0.8336132853451446  0.3404806639904052  0.1809629692691033
  0.7382208540974560  0.4373565028608368  0.2372171691583631
  0.6801148892580287  0.4997556044665927  0.3354289493355509
  0.5885734376153593  0.5712933591731257  0.4025423458840933
  0.5130606058508675  0.6619837403100775  0.4965730749353980
  0.4269404572720532  0.7904619495201146  0.5864242857142870
  0.3364950761351082  0.8346790125507582  0.6594315328534535
  0.2715056718346247  0.9224626070505693  0.7537843152454755
  0.1818848320413409  0.0152160026762616  0.8344805527870065
  0.1472963967331111  0.9820675613695116  0.9765445542635689
  0.1006744615171655  0.0847138081395329  0.0858021327057941
  0.9971758610188246  0.1813191209856058  0.1707994956626067
  0.9199624520118093  0.2406456455334052  0.2500017234219243
  0.8305877007198248  0.3414783845514933  0.3612254028239192
  0.7467822697489837  0.4194705020302720  0.4111104978774449
  0.6674586946290120  0.4903804563492073  0.5009043969176830
  0.5885365808416410  0.5626460718899935  0.6074305906238493
  0.5000916136028053  0.6529329162052449  0.6320211337209329
  0.4214013072166836  0.7701692940199365  0.7435495685677367
  0.3590017801771879  0.8380402653193073  0.8353659413067547
  0.2262954789590239  0.8949600604466568  0.9345397849760033
  0.2298687910668136  0.9174993890734555  0.1044338339793285
  0.1530824820044288  0.0206416989664078  0.1679497499077129
  0.0995799847729799  0.1100297416020695  0.2201985700442961
  0.9854271917681814  0.1575738644333669  0.3403966099114086
  0.9218317294204468  0.2432837061646396  0.4122453156146193
  0.8332416486710983  0.3393560640457736  0.4947609662237014
  0.7584253926725708  0.4227796719269108  0.5937312666112931
  0.6507632931893710  0.4729053460686572  0.6552809699150970
  0.5997218480066451  0.5718884643779987  0.7485858494832058
  0.4927140116279034  0.6729795298080461  0.8447819310631246
  0.4122431829088242  0.7374177376338125  0.9342903700627545
  0.3175254521963851  0.8192124949243293  0.0257930961609460
  0.3239441998892545  0.8419724095607251  0.1629732433554807
  0.2441572623661870  0.9274481884459220  0.2419701001292012
  0.1592744845884084  0.0093013136766302  0.3094553137689218
  0.0995978442229628  0.0977065111664785  0.4018710391288280
  0.9999603253045422  0.1876640697674432  0.4850936632521226
  0.9275665896087091  0.2489467603359188  0.5744536950904404
  0.8161277953119210  0.3246000696751565  0.6612132442783292
  0.7436638233665533  0.4291059302325593  0.7424640988372104
  0.6663558148763400  0.4987440868401620  0.8573463256736815
  0.5760237140088620  0.5957774626245822  0.9224693983019563
  0.5240283997785156  0.6542444033776320  0.0154010760428207
  0.4366160372831303  0.7447417294204470  0.1096438385935770
  0.4012681196936114  0.7535308803986709  0.2565061198781819
  0.3329037292358805  0.8524659519195268  0.3092196207087454
  0.2381924160206736  0.9273492483388708  0.3877549169435213
  0.1719635340531553  0.0405934989848618  0.4791503986710950
  0.0843873131229245  0.0892829129752641  0.5946707368955302
  0.0064190536175701  0.1718935806570698  0.6564926402731643
  0.9049652487080095  0.2697247623661880  0.7444348274270922
  0.8154757452011836  0.3532746511627920  0.8230497462163129
  0.7225672614433378  0.4142642331118509  0.8974670524178663
  0.6762270851790362  0.4934326970284246  0.9931423278885205
  0.5832579378922134  0.5636830477113293  0.1126795371908429
  0.5043671654669595  0.6537409265411611  0.1792226411960129
  0.4890535562015472  0.6622934708379447  0.3386149460132870
  0.4088206123108122  0.7698033379475788  0.4132136507936508
  0.3325396788482848  0.8374805292543357  0.4699850775193823
  0.2601396779254372  0.9347287412329237  0.5559259426910330
  0.1769067852528607  0.0006760266703552  0.6603318018641531
  0.0907911415651554  0.0795573717238867  0.7481377048726472
  0.0071024750830588  0.1636867183462556  0.8323606944444464
  0.9074481058508681  0.2562348906423040  0.9088642146548551
  0.8435523177371707  0.3081497097637538  0.9868862015503908
  0.7547001070505743  0.4166465051679609  0.0812466911221819
  0.6684641251384278  0.4993982115171676  0.1614025193798483
  0.5800357461240324  0.5874129286637100  0.2585817520302669
  0.1759996400885910  0.1661151047434473  0.8279006418420067
  0.0983154083610174  0.2387857954964900  0.9030548744924332
  0.0063570441122209  0.3209595704134358  0.0024011609449985
  0.9226192072720565  0.4067243387781474  0.0838314128829794
  0.8186093064784075  0.4841421894610534  0.1831389636397205
  0.7466849100221467  0.5785940559246967  0.2426354623477280
  0.6498357285898848  0.6813670358065735  0.3369615849944623
  0.5771225581395356  0.7527571603912904  0.4367560331303082
  0.4982033084163930  0.8354907950350707  0.4848425738279829
  0.4062653991325220  0.9153867732558112  0.5643870353451490
  0.3607168816906636  0.0148700549095580  0.6465483527131752
  0.2598719988925779  0.0623467990956073  0.7589240227021037
  0.2457701767257277  0.0913238030638581  0.9141794370616481
  0.1584496119416769  0.1593221816168295  0.9986330767810969
  0.0923986037283129  0.2355935672757496  0.0847583296419359
  0.0037563039867123  0.3400511111111086  0.1814750895164252
  0.9127689664082652  0.3890323966408289  0.2591996936138798
  0.8458746317829480  0.4865634560723535  0.3328800839793260
  0.7484266172942071  0.5554672452934639  0.4010636941675898
  0.6687378543743066  0.6362409814507188  0.4860163621262430
  0.5822237509228501  0.7444925756736822  0.5649498555740138
  0.5171056916758943  0.8311595514950199  0.6583743563122937
  0.4212217631044695  0.9324613768918439  0.7318665956072365
  0.3381128313030644  0.9939345256552201  0.8529645270394965
  0.3101431007751927  0.9860469089147301  0.0103334708379492
  0.2369214165743827  0.0744708319490570  0.0702497014581027
  0.1833254069767420  0.1693751033591724  0.1593483167220384
  0.0853439055001814  0.2584292695644166  0.2368374856958297
  0.0053403100775213  0.3082562140088569  0.3427027431709107
  0.9231630191029865  0.4200627782391990  0.4112150516795836
  0.8400726107419700  0.4967273048172771  0.4986757747323765
  0.7709084330011109  0.5822523288113715  0.5880275687523095
  0.6440309380767815  0.6532254854189716  0.6506235146733133
  0.5625363026024388  0.7375289064230373  0.7532930292543369
  0.5083121617755637  0.8359427985419003  0.8420670519564410
  0.3973859971391676  0.9296405643226251  0.9272861295681096
  0.4121612084717583  0.9082699940014791  0.0927595851790315
  0.3184974856958291  0.0114148643410843  0.1598738298265019
  0.2681228562200104  0.0888741145256517  0.2739380970837928
  0.1656442640273141  0.2002536830933934  0.3406294162975243
  0.0919057705795510  0.2494556436877104  0.4213302607050551
  0.0062527842377236  0.3497975341454378  0.4978613976559600
  0.9215762684569953  0.4153603529900352  0.5828508153377641
  0.8509970173495773  0.5088602528608348  0.6518821839239592
  0.7215018895348848  0.5805346142487977  0.7541184094684397
  0.6564405454042088  0.6743767857142871  0.8440500987449226
  0.5627605850867496  0.7387340836101899  0.9456526241232908
  0.4884329106681449  0.8402878682170538  0.0227779438907376
  0.4954942248062011  0.8500457313584349  0.1896322752860868
  0.4005700539867121  0.9319207618124778  0.2554177496308583
  0.3241503243816908  0.0227430707825746  0.3397294485972679
  0.2228835451273525  0.1132364687153924  0.4049759533038042
  0.1808718955334072  0.1951538196751557  0.5034530477113321
  0.0781590660760401  0.2431842631044674  0.5833958513289019
  0.0083780467884793  0.3456456381506072  0.6612947392949451
  0.9200893983019540  0.4065725115356216  0.7355701273532702
  0.8354392663344399  0.4862596184016255  0.8476243973791071
  0.7557175198412693  0.5914931759874520  0.9238193738464346
  0.6653534389996310  0.6614428663713525  0.0198871313215179
  0.5897697319121420  0.7414942137320040  0.1115665171650022
  0.5685244748984886  0.7455198011258801  0.2332570561092666
  0.4848517704872677  0.8261540323920258  0.3422243669250662
  0.4297674141749752  0.9200013815060899  0.4139525175341419
  0.3183618512366166  0.0107713164451795  0.4687412915282394
  0.2459058494832007  0.0847044947397535  0.5736450502953119
  0.1722313270579576  0.1782010211332619  0.6590752390180867
  0.0820910968069413  0.2592252948504949  0.7174334546880772
  0.0124367146548536  0.3094198837209277  0.8185186267995590
  0.9344568166297549  0.4199608061092661  0.8941405574012578
  0.8271672812846091  0.4870418761535618  0.9820014931709125
  0.7651030643226306  0.5746367561830965  0.0989571857696561
  0.6745099031007769  0.6602379877260987  0.1834390227021032
  0.2638461872462159  0.2419932475083044  0.7352051319675184
  0.1741379148209674  0.3282954614248794  0.8224063565891484
  0.0824887301587296  0.4208771050203026  0.9081360035991111
  0.9805395704134341  0.5014411637135439  0.9853971968438557
  0.9086819043004795  0.5696964576411929  0.0859701942598718
  0.8523387952196373  0.6415236544850487  0.1757010954226672
  0.7772830274086360  0.7180239964008877  0.2523863150609102
  0.6872226167404918  0.8118927533222617  0.3192097093023278
  0.6001656847545220  0.9128241131413830  0.4003610331303094
  0.4988341297526731  0.9796258785529730  0.4815300493724592
  0.4302268816906576  0.0752277943890718  0.5763741154485018
  0.3457999709302300  0.1785730514027293  0.6553995491878908
  0.3502132022886641  0.1626747752860851  0.8317341311369475
  0.2449151439645618  0.2332906104651187  0.9125030597083779
  0.1701694564414922  0.3206366168327790  0.9879877496308609
  0.0675556519933522  0.4134718452380923  0.0815513487449238
  0.9842306829088230  0.4857098897194518  0.1726656100036905
  0.9215748458840878  0.5737375101513464  0.2595656981358445
  0.8194494518272393  0.6513447688261351  0.3468792188076790
  0.7460243720007398  0.7420553188445922  0.4351850133813215
  0.6770106773717259  0.8597171571613131  0.4957842045035079
  0.5758546128645250  0.9124365088593578  0.5516855712440005
  0.5270167894056854  0.9974221091731295  0.6442374672388311
  0.4199464142672582  0.0942839304171272  0.7491648172757479
  0.4333066408268706  0.0631287389258048  0.9123374635474377
  0.3288754051310434  0.1570058061092681  0.9970239710225144
  0.2513032027500941  0.2248646802325567  0.0634520584163880
  0.1723146673126621  0.3250907027500887  0.1571150092284981
  0.1113168133997817  0.3971385908084173  0.2534765942229598
  0.0101557604282050  0.4822658296419320  0.3306373569582846
  0.9101554019010720  0.5827381824474003  0.4284714904023659
  0.8369905818567744  0.6527090337763042  0.5025686189553369
  0.7513104554263563  0.7403629766519018  0.5751214004245142
  0.6512603239202690  0.8289607959579186  0.6650191925064632
  0.6050877413252138  0.9078079955703231  0.7591850346068654
  0.5020530583241083  0.9887460460502027  0.8398155703211501
  0.4938115928386893  0.9797271668512337  0.9922422443706154
  0.4177897305278719  0.1041123011258733  0.0647923818752290
  0.3165192594130701  0.1388790194721281  0.1608635792727924
  0.2458235585086754  0.2473305490956079  0.2573512204688058
  0.1491228026947198  0.3105320930232551  0.3497922439091923
  0.1091605869324468  0.4071700484496148  0.4167874829272762
  0.0163396303986687  0.5052813247508325  0.5041367423403500
  0.9384229217423368  0.5615985815799220  0.5947208965485444
  0.8514167474160175  0.6491869024547796  0.6643485686600243
  0.7515285548172770  0.7355131635289780  0.7219905620155060
  0.6720628188445943  0.8018116343669277  0.8561288685861967
  0.5968220339608692  0.9152947346806926  0.9205990960686563
  0.5881126744186034  0.9134925502953095  0.0867727371723888
  0.4770401707272072  0.0071453188445929  0.1571231160022180
  0.4183121179401965  0.0994654877260999  0.2595402653193091
  0.3318047978959058  0.1652529637320015  0.3348340120893312
  0.2544146456256939  0.2742207765780762  0.4245901882613481
  0.1579817529531198  0.3646452625507592  0.5336351005906224
  0.0788547282207475  0.4352746202473270  0.5831116592838654
  0.0007194878183867  0.4943175641380577  0.6744368996862278
  0.9098441066814331  0.5842855703211498  0.7594503820598035
  0.8571159509966790  0.6549904457364306  0.8567850876707297
  0.7426668530823193  0.7226889862495369  0.9610199856958275
  0.6589903308416396  0.8524520048911057  0.0090002320967173
  0.6733419702842411  0.8371451425802903  0.1855743830749361
  0.5551979821890001  0.9408874257105921  0.2742559616094482
  0.4930311572535970  0.0099493203211551  0.3340130264857848
  0.4215691818936875  0.1126804138981186  0.4099688145994804
  0.3227386088039879  0.1648302021040990  0.5033798943337047
  0.2708569052233329  0.2640740374677009  0.5808146539313412
  0.1853681958287225  0.3396646723883379  0.6568356455334055
  0.0953299815430029  0.4185336554078987  0.7574173348098938
  0.0079189198043537  0.5097333328719102  0.8182342631044648
  0.9258965139350295  0.5861445861018808  0.9246642340347009
  0.8364897042266506  0.6556791846622403  0.9975846188630513
  0.7611883098006658  0.7369527025655245  0.1002412818383149
  0.3629430052602416  0.3378766449796942  0.6622618816906609
  0.2713200096899229  0.4200126799557040  0.7406666560538966
  0.1804376365817646  0.5266499012550767  0.8275266006829085
  0.0846852990033256  0.5761777477851595  0.9259127228682189
  0.0154370099667744  0.6627643812292376  0.0353238704318954
  0.9121958813215230  0.7313544693613849  0.0822002588593591
  0.8344863948874135  0.8464074815430038  0.1846472176079743
  0.7550827380952398  0.9320401859542287  0.2369707567368025
  0.6778283674787744  0.9993171816168314  0.3109667224990744
  0.5724862273901792  0.0718913492063464  0.4153887518456969
  0.5014158633259527  0.1632898140457755  0.5026453229974166
  0.4297598735695800  0.2658589124215567  0.5784603169988927
  0.4142718516980466  0.2382018069398271  0.7299427150239950
  0.3474889641011458  0.3267577141011415  0.8524369366002205
  0.2647350479881894  0.4319854111295669  0.9082515725359883
  0.1531364756367637  0.4987361692506482  0.0022789165743831
  0.0738820339608708  0.5690477893134016  0.0930175304540413
  0.9925983047249929  0.6755963468992263  0.1779043346253246
  0.9020168784606852  0.7406174446290166  0.2616693936877041
  0.8315431584533002  0.8286824552417897  0.3531226379660382
  0.7244325415282376  0.9213145399593969  0.4082869730527889
  0.6680739253414529  0.0001211475636751  0.4957056358434855
  0.5966782659653020  0.0759532590439278  0.5757958951642692
  0.5279096119416735  0.1723096783868598  0.6606903626799578
  0.5231452731635287  0.1598676102805427  0.8242914548726432
  0.4140425987449277  0.2452729212809146  0.8893966745108912
  0.3316959113141351  0.3543872739018070  0.9803687121631626
  0.2374277187153950  0.4043111258767098  0.0756462776854931
  0.2070307055186404  0.4816179646548520  0.1808411374123295
  0.0802138362864540  0.5648691182170538  0.2267884989848667
  0.0067044144518249  0.6488649935400517  0.3232519112218526
  0.9277635368217076  0.7371700710594311  0.3861748726467340
  0.8584126222775907  0.8354752293281678  0.4795540900701383
  0.7534767667958633  0.8939806727574720  0.5979620081210797
  0.6675163473606460  0.9938273694167563  0.6480949012550781
  0.5829700913621281  0.0780471064045756  0.7547614839424170
  0.5866450821336286  0.0991418166297535  0.9024659763750478
  0.5033252685492826  0.1817693383167196  0.0022993701550362
  0.3856801144333701  0.2353857285898826  0.0815212721483931
  0.3177029143595433  0.3259454549649305  0.1651364654854177
  0.2500125198412704  0.3770277768549306  0.2743793720007375
  0.1810696797711344  0.4871432248984888  0.3195776379660416
  0.0916910889627189  0.5767935358988581  0.4199264853266911
  0.0118495095053532  0.6435375904392799  0.4840092700258367
  0.9205777759320810  0.7532829420450327  0.5833085861941640
  0.8410197028423738  0.8415653520671853  0.6718626956441511
  0.7432215074750843  0.9035361055740125  0.7498285142118846
  0.6752868747692844  0.9923093341638989  0.8619479189737902
  0.6847471594684365  0.9996655214101153  0.9964143572351389
  0.5704459473052808  0.0801882535068259  0.0955981861387940
  0.4880052906976715  0.1701476951827274  0.1575497212993753
  0.4167920233481013  0.2416451033591756  0.2599732876522722
  0.3380419232189027  0.3184637822997445  0.3426967063492086
  0.2382077030269443  0.4292690494647502  0.4306832244370611
  0.1749330458656360  0.5076717829457351  0.5080318558508665
  0.0784040988372112  0.5906139470284231  0.5996407821151735
  0.9746590863787361  0.6507357705795513  0.6822852607050578
  0.9082779540420844  0.7601972978958997  0.7459050175341417
  0.8198691445182718  0.8189115259320801  0.8376814968623094
  0.7559115517718737  0.9210790896087104  0.9436733979328196
  0.7634458697858975  0.9195941108342538  0.0693872203765196
  0.6726113058324117  0.0133390079365086  0.1710289064230324
  0.5749250936692505  0.0830778377630139  0.2519736309523779
  0.5071283600959759  0.1987885515872989  0.3343556224621622
  0.4182518235511239  0.2321083836286419  0.4216642672572917
  0.3328037057032134  0.3378998911037314  0.4893930961609456
  0.2794849552417844  0.4190203806755264  0.6070945187338523
  0.1842214281100070  0.5183032655038744  0.6670990485418997
  0.0936437799926182  0.5995271816168355  0.7511103903654472
  0.0223606483019552  0.6630447337578431  0.8455192824843110
  0.9358623721853050  0.7632935095976379  0.9433292469545975
  0.8544610737356990  0.8243943932262852  0.0005038450535224
  0.3944793226282783  0.4228743660022118  0.5784938565891480
  0.3401877943890739  0.5171801065891444  0.6696931981358460
  0.2649876098191228  0.5938491412882954  0.7575145971760762
  0.1763898638796633  0.6750355509413097  0.8488460317460351
  0.0939520907161295  0.7467296816168343  0.9146616814322641
  0.0052029609634516  0.8235257733481021  0.0113649663159805
  0.9222637356958288  0.9200418535437436  0.0854518946105571
  0.8215449824658521  0.0043613030638596  0.1623799321705448
  0.7434420574935388  0.0962405015688432  0.2569617114248786
  0.6671622176079737  0.1752859482281295  0.3395541828165349
  0.5946507438169064  0.2537074570874864  0.4472854189737916
  0.4850973002030301  0.3753706220007373  0.4982490430047974
  0.5019152833148794  0.3191134173126642  0.6741766191399066
  0.4454665831487645  0.4279465056293859  0.7581338427464033
  0.3490227533222594  0.4921147153008505  0.8359946742340369
  0.2625855287929113  0.5904692488002965  0.9084334468438513
  0.1614886171096330  0.6494401255075672  0.0165440157807311
  0.0953506838316756  0.7472689433370263  0.1226746008674766
  0.9853677182539684  0.8367326679586569  0.1303633863971925
  0.9133939673311176  0.9369607645810234  0.2606011041897389
  0.8200317631044669  0.0115199889258051  0.3195234874492456
  0.7508807830380206  0.0709363159837579  0.3921773251199738
  0.6482103811369484  0.1608025622923606  0.4771333739387202
  0.5676699677002617  0.2589657595053509  0.5515287901439621
  0.5747617506459974  0.2542482816537444  0.7626146239387239
  0.5064584454595789  0.3047028506829079  0.8226729674234008
  0.4270810414359545  0.4241918646179386  0.9246330334071615
  0.3235830301771898  0.5127740974529331  0.0168037384643753
  0.2617501407345912  0.5903560469730493  0.0938336660206716
  0.1661864341085248  0.6497707285898855  0.1471195279623458
  0.0939124243263194  0.7377569481358464  0.2387045219638253
  0.0032712153931342  0.8291968447766678  0.3085211014211922
  0.9071216223698784  0.9283669264488736  0.3909834233111837
  0.8370594545957886  0.0082321188630488  0.4997689161129557
  0.7384526052048699  0.0777418678479123  0.5925732756552264
  0.6411897212993694  0.1676903566814332  0.6505849266334423
  0.6505431307678080  0.1586878562200056  0.8140154771133226
  0.5817024049464763  0.2563399815430074  0.8941809694536715
  0.5086532253599145  0.3145434948320442  0.9945114857881165
  0.4000731252307119  0.4041574497046909  0.0899155131044651
  0.3150151582687357  0.4755471599298602  0.1766210497416054
  0.2448353682170534  0.5782801531930630  0.2706475355297187
  0.1486738445921034  0.6806093567737150  0.3173321363971979
  0.0732989765596130  0.7411240679217457  0.3989612818383179
  0.0027277680878584  0.8283479328165342  0.5159717838685864
  0.9160132498154283  0.9210486849390946  0.5830428875968963
  0.8361914004245108  0.0072288482834963  0.6673486152639327
  0.7568237975267635  0.0721187518457000  0.7434801185861915
  0.7473483462532329  0.0877244449058665  0.9245699690845299
  0.6777525452196400  0.1883709025470637  0.0277009205426353
  0.6063954757290517  0.2552738450535230  0.0797237416943517
  0.5022976947212996  0.3462712675341422  0.1429308499446265
  0.4039578608342538  0.4072241606681430  0.2559957539682571
  0.2938505970837966  0.4718206053894392  0.3294199150978230
  0.2376462546142477  0.6151484722222236  0.4116176988741245
  0.1678279438907353  0.6844939945551829  0.5073036964747146
  0.0717103797526732  0.7523055980066431  0.5849128174603209
  0.0077165342377228  0.8338544476744190  0.6614252547065362
  0.8956731741417485  0.9105132659652995  0.7515245173495728
  0.8374278451458110  0.0019530481727585  0.8205776628829824
  0.8306253654485047  0.0076292787929120  0.0156638372093028
  0.7353831727574729  0.0935757179771102  0.0936676351974910
  0.6434493060169828  0.1683468632336655  0.1828840817644917
  0.5708805227943898  0.2580258684016243  0.2549026079734205
  0.4680700756736798  0.3174712518457028  0.3523222346806918
  0.3892013279808069  0.4282204037467707  0.4094945454964929
  0.3205061411037278  0.5102873518826101  0.5029176093576950
  0.2452116302141008  0.6017554964931691  0.6079824390919129
  0.1372878714470289  0.6733870436507914  0.6504888902731665
  0.0759428437615384  0.7569372189922490  0.7413326647286809
  0.9894125359911428  0.8417616449796981  0.8434716320598028
  0.9052619979697312  0.9267334588409000  0.9338575692137283
 
  0.00000000E+00  0.00000000E+00  0.00000000E+00
  0.00000000E+00  0.00000000E+00  0.00000000E+00
  0.00000000E+00  0.00000000E+00  0.00000000E+00
  0.00000000E+00  0.00000000E+00  0.00000000E+00
  0.00000000E+00  0.00000000E+00  0.00000000E+00
  0.00000000E+00  0.00000000E+00  0.00000000E+00
  0.00000000E+00  0.00000000E+00  0.00000000E+00
  0.00000000E+00  0.00000000E+00  0.00000000E+00
  0.00000000E+00  0.00000000E+00  0.00000000E+00
  0.00000000E+00  0.00000000E+00  0.00000000E+00
  0.00000000E+00  0.00000000E+00  0.00000000E+00
  0.00000000E+00  0.00000000E+00  0.00000000E+00
  0.00000000E+00  0.00000000E+00  0.00000000E+00
  0.00000000E+00  0.00000000E+00  0.00000000E+00
  0.00000000E+00  0.00000000E+00  0.00000000E+00
  0.00000000E+00  0.00000000E+00  0.00000000E+00
  0.00000000E+00  0.00000000E+00  0.00000000E+00
  0.00000000E+00  0.00000000E+00  0.00000000E+00
  0.00000000E+00  0.00000000E+00  0.00000000E+00
  0.00000000E+00  0.00000000E+00  0.00000000E+00
  0.00000000E+00  0.00000000E+00  0.00000000E+00
  0.00000000E+00  0.00000000E+00  0.00000000E+00
  0.00000000E+00  0.00000000E+00  0.00000000E+00
  0.00000000E+00  0.00000000E+00  0.00000000E+00
  0.00000000E+00  0.00000000E+00  0.00000000E+00
  0.00000000E+00  0.00000000E+00  0.00000000E+00
  0.00000000E+00  0.00000000E+00  0.00000000E+00
  0.00000000E+00  0.00000000E+00  0.00000000E+00
  0.00000000E+00  0.00000000E+00  0.00000000E+00
  0.00000000E+00  0.00000000E+00  0.00000000E+00
  0.00000000E+00  0.00000000E+00  0.00000000E+00
  0.00000000E+00  0.00000000E+00  0.00000000E+00
  0.00000000E+00  0.00000000E+00  0.00000000E+00
  0.00000000E+00  0.00000000E+00  0.00000000E+00
  0.00000000E+00  0.00000000E+00  0.00000000E+00
  0.00000000E+00  0.00000000E+00  0.00000000E+00
  0.00000000E+00  0.00000000E+00  0.00000000E+00
  0.00000000E+00  0.00000000E+00  0.00000000E+00
  0.00000000E+00  0.00000000E+00  0.00000000E+00
  0.00000000E+00  0.00000000E+00  0.00000000E+00
  0.00000000E+00  0.00000000E+00  0.00000000E+00
  0.00000000E+00  0.00000000E+00  0.00000000E+00
  0.00000000E+00  0.00000000E+00  0.00000000E+00
  0.00000000E+00  0.00000000E+00  0.00000000E+00
  0.00000000E+00  0.00000000E+00  0.00000000E+00
  0.00000000E+00  0.00000000E+00  0.00000000E+00
  0.00000000E+00  0.00000000E+00  0.00000000E+00
  0.00000000E+00  0.00000000E+00  0.00000000E+00
  0.00000000E+00  0.00000000E+00  0.00000000E+00
  0.00000000E+00  0.00000000E+00  0.00000000E+00
  0.00000000E+00  0.00000000E+00  0.00000000E+00
  0.00000000E+00  0.00000000E+00  0.00000000E+00
  0.00000000E+00  0.00000000E+00  0.00000000E+00
  0.00000000E+00  0.00000000E+00  0.00000000E+00
  0.00000000E+00  0.00000000E+00  0.00000000E+00
  0.00000000E+00  0.00000000E+00  0.00000000E+00
  0.00000000E+00  0.00000000E+00  0.00000000E+00
  0.00000000E+00  0.00000000E+00  0.00000000E+00
  0.00000000E+00  0.00000000E+00  0.00000000E+00
  0.00000000E+00  0.00000000E+00  0.00000000E+00
  0.00000000E+00  0.00000000E+00  0.00000000E+00
  0.00000000E+00  0.00000000E+00  0.00000000E+00
  0.00000000E+00  0.00000000E+00  0.00000000E+00
  0.00000000E+00  0.00000000E+00  0.00000000E+00
  0.00000000E+00  0.00000000E+00  0.00000000E+00
  0.00000000E+00  0.00000000E+00  0.00000000E+00
  0.00000000E+00  0.00000000E+00  0.00000000E+00
  0.00000000E+00  0.00000000E+00  0.00000000E+00