Li 
 1.0000000000000000
    21.6720000000000006    0.0000000000000000    0.0000000000000000
     0.0000000000000000   21.6720000000000006    0.0000000000000000
     0.0000000000000000    0.0000000000000000   21.6720000000000006
 Li 
 432
Cartesian
 -0.1773464700000000  0.4420940000000000 -0.0687545600000000
 20.0489500800000009  1.6057999999999999  1.8285161299999999
 18.1769387599999988  3.2947915900000000  3.3798913900000001
 16.4262369600000007  5.4155892000000003  5.4563083600000004
 14.2760434200000006  7.2694140899999997  6.8617346699999997
 12.5385455100000005  9.1481803999999993  9.2284884799999993
 10.7858266000000000 10.8506476400000000 10.7680347899999997
  9.3449096199999993 12.6307865499999998 12.8220512000000006
  7.5813593600000004 14.7822248900000002 14.6296589600000004
  5.6329310499999998 16.3672045900000001 16.3672245499999995
  3.0345637900000000 18.1290240099999984 17.5655766299999989
  1.6919460700000000 19.6344541100000001 19.9264849599999998
  1.6254658600000000 19.8920746100000017  1.4940138599999999
  0.2345000600000000  0.1293398900000000  3.6766825999999999
 19.4145728400000017  1.6745700200000000  4.9854473300000004
 17.8991948699999988  3.7184455999999999  7.4501986999999996
 16.0080735599999997  5.2725995200000000  9.0750725899999996
 14.4728722100000002  7.5531379300000001 10.9453763500000001
 12.2699468599999992  8.7274018400000006 12.9992450200000000
 10.7628377900000007 10.6291745500000001 13.9136158000000005
  9.5956268399999995 12.5373766399999997 15.7748354699999993
  7.5379639799999998 14.9006162300000007 18.2771212100000007
  5.3372447999999997 16.4062240800000012 20.1241404099999990
  3.0715951000000001 17.9256953000000010  0.2385198700000000
  3.6761491500000001 18.0869290000000014  3.8536141800000001
  1.8524872299999999 19.7990968500000015  5.2574605900000000
  0.0169106800000000  0.2581528600000000  6.7185554999999999
 19.7454007900000015  1.4792529400000001  9.0196275799999999
 18.0995689900000016  2.9401584199999999 10.5485640099999998
 15.9550337500000001  5.2149567599999997 12.0712379399999996
 14.3484451499999999  7.3279553300000000 14.8045675800000005
 12.3547574400000002  9.2561706400000006 16.6093418399999990
 11.0972037599999993 10.7976621599999998 18.2867203499999995
  9.3515952700000007 12.7176029499999999 20.5528936400000006
  7.6805859999999999 14.6589132800000002 22.0005005000000011
  5.2381580000000003 16.0624754500000009  1.8776568100000000
  5.2002553999999996 16.1951330499999990  4.9234365799999997
  3.2645438400000000 17.7382528000000015  7.1516449399999997
  1.6763406700000001 20.6276160799999992  8.9153529700000007
  0.2350924200000000  0.4178927900000000 10.9848702899999999
 19.7114871299999983  2.3995402000000001 12.7537079099999993
 17.8216635100000005  3.8246150900000000 14.4038001300000005
 15.9268014200000003  5.5119547300000002 16.0833443299999992
 14.1527312399999996  7.5373055400000002 17.9432535299999998
 12.7265386899999999  8.9952430099999994 20.2185296900000004
 11.0959641999999992 10.4956443600000000  0.3383345700000000
  9.0062588800000007 12.4614461399999996  2.5272064400000001
  6.6550579299999999 14.1674926200000009  3.8686994000000001
  6.9871323700000003 14.7256828800000008  7.2696276400000004
  5.6579898799999997 16.2309761899999998  8.7911105999999997
  3.0872622700000001 18.3023449800000009 10.3128340200000004
  1.7878714300000000 19.8650992200000012 12.6296338000000006
 -0.2543703000000000 -0.0797497800000000 14.5428796100000000
 19.9498301799999993  2.1956890800000002 15.8792986900000006
 17.6119076999999997  4.0077423500000000 17.8966775300000016
 15.7026996899999993  5.7853424899999997 19.6069338799999997
 14.5537707600000008  7.4951688799999996 -0.0142404400000000
 12.8614870299999993  8.5629866099999994  2.0904748999999998
 11.0125996500000003 10.9419573099999994  3.4790014899999999
  8.7956086899999999 12.0001798300000004  5.7115421700000004
  8.7385064400000001 12.6974493200000005  8.6224766699999993
  7.7469537400000004 14.4183311700000001 10.8002503300000008
  5.5004740999999999 16.3496435099999999 12.6152206200000006
  3.8491016400000002 18.1854699500000017 14.2320912499999999
  1.7630332099999999 19.9698843400000001 16.0995876100000004
 -0.0624501500000000  0.1357602800000000 18.1120730099999996
 19.5851544000000004  2.1554897400000002 19.3391157299999996
 18.0497572700000006  3.6830892300000002 21.7746531499999989
 16.0199364399999986  5.7036319400000002  2.2951340500000001
 14.4821757099999999  7.5280639999999996  4.2147056999999997
 12.2741035699999994  8.7403126600000007  5.5385116900000000
 10.9647853899999994 10.6633844199999999  7.6958666800000000
  1.5722181000000000  1.6521630899999999 19.7392599799999999
 -0.4919044900000000  3.7195178100000001  0.1110795000000000
 20.0818272899999997  5.7123293899999998  2.1153610399999998
 18.0660671199999996  7.3788969499999997  3.9218294700000000
 15.9987223499999995  9.4783901299999993  5.1409704899999999
 14.7394498800000004 10.8307034600000005  7.2694161900000003
 12.7555635400000007 12.3810696799999995  8.7238977200000001
 11.1190494500000003 14.3465116199999994 10.7617316800000005
  9.2526535899999995 17.1308913700000005 12.7089871199999997
  7.2925212899999998 18.0891635599999994 14.2912001800000006
  5.8840709200000001 19.9916096199999984 16.3360136800000006
  3.9418080799999999  0.3297612100000000 18.0848625399999996
  3.1922075099999998 -0.3886318100000000 -0.5083264199999999
  2.1818169300000001  1.8359176500000001  1.8595038200000000
 -0.0612047400000000  3.9295479900000001  3.7015666700000001
 19.9374262599999987  5.2152724299999997  5.4180373499999996
 18.0004966499999988  7.4005195500000003  7.8284769299999999
 16.1842653500000004  9.0907647199999992  8.9095867099999992
 14.4651648300000009 10.6275252499999997 10.8556000899999994
 12.7547647800000004 12.1936656699999997 13.1642357600000004
 10.8379854499999997 14.1503621600000002 13.6971620099999996
  9.1326091300000005 16.6911089399999994 16.1142062499999987
  7.7802865800000003 18.1620086299999990 18.1040506800000003
  4.9042756199999999 19.3955744299999999 20.2533462200000010
  4.9817164399999996 19.8840467600000004  2.2632900500000002
  3.3176035499999998  0.4473469000000000  3.6398069799999999
  2.1580974300000002  2.3845645599999998  4.7721434100000000
 -0.3158219000000000  3.4149407900000002  7.3770753300000003
 19.9779372399999993  5.2724444799999999  8.9341804800000002
 18.0580130099999998  7.3545246200000003 10.7224596600000002
 16.4365951099999990  9.1624810500000002 12.8673440100000001
 14.1033420899999999 10.2488046599999993 14.2012491799999996
 12.9971718900000006 12.3939667999999994 16.2233525299999997
 10.6780980599999999 14.5848123699999999 18.3081140100000006
  8.9341342600000004 15.9813172100000003 20.2479408999999997
  6.8814115999999999 17.7539731900000000 22.2309879799999983
  7.0205187000000002 18.2472260599999991  3.5319561300000002
  5.2913761900000003 20.0996571400000015  5.2439760099999999
  3.4517966300000000  0.2015780700000000  6.7065155599999997
  2.1584844799999998  2.1174955099999999  8.7093491600000004
 -0.0008598300000000  4.0670557199999999 10.5129498699999999
 20.1022231299999987  5.3951741899999996 12.4495604800000006
 17.6871215799999995  7.0347327100000001 14.3298134299999997
 16.1166823800000003  9.2995837199999993 16.0906819500000005
 14.4412632199999997 10.8087818500000008 18.5804095700000005
 12.4835859300000003 12.9116891700000007 19.9917568000000010
 11.3567434800000004 14.1787847100000004 22.0057721199999996
  9.4623427600000003 16.1400427600000000  2.3762012700000001
  8.6962826900000003 16.3305212399999995  5.5590006299999999
  7.2146896199999997 18.4746421100000013  6.7014076200000003
  5.1621060400000003 20.0975129099999990  8.4034245599999995
  3.7267937099999999  0.8797423100000000 10.3841474399999996
  1.8288418500000001  1.9349392900000000 12.8877042100000008
  0.1391137300000000  3.7252776800000000 14.2275085000000008
 19.6124068700000009  5.8454750500000001 16.1333915800000014
 17.6729903499999992  7.6561682400000004 17.8371341000000001
 15.6594776899999992  8.9779344600000002 19.4499059599999988
 14.6551933900000009 10.6936734100000006 21.5233805300000007
 12.6403660299999991 12.2161390099999991  2.4419909299999998
 10.9306452099999998 14.1678733599999997  3.8841130800000001
 10.5987686700000001 14.3532241000000003  7.3384631100000002
  8.8599603100000000 16.6831779400000002  8.9551662400000005
  7.2067999199999999 18.1498780300000000 10.1855165999999997
  5.6377471000000003 20.2574412799999983 12.0480270300000001
  3.8339238500000001  0.0146508500000000 14.3107108099999998
  1.9676256200000000  1.7241673600000000 16.2136403400000013
  0.1539248400000000  3.5474185600000001 18.0389209699999995
 19.6662153500000016  5.5531225500000003 19.6969052600000012
 18.2814658299999984  6.6782205100000001 21.3877977600000015
 16.3558607199999990  9.0295630599999992  1.7607782900000000
 14.4869545199999994 10.8229580399999996  3.4979154000000001
 12.5705346900000006 12.7304129899999996  5.6039837300000004
  3.8142642000000002  3.6000465500000001 17.9422627100000014
  2.1306915300000000  5.1749657600000001 19.5710052400000016
  0.1377698600000000  6.9558358100000000  0.0520379600000000
 19.9950034599999995  8.8145298699999994  1.8167943799999999
 17.7409008899999989 10.4923295299999992  3.9689876200000000
 16.1821553700000003 12.5392903800000006  5.2583957400000001
 14.0832399099999996 14.7665863999999996  7.3026314699999997
 12.5074000800000000 16.3137531799999991  9.4653767500000008
 10.7970620999999998 18.1067565100000003 10.5075082599999998
  8.8045837299999992 19.8382621499999985 12.2313958300000003
  7.8174562600000002 21.9942638300000013 14.0119959000000005
  5.6319459600000004  1.3511798300000000 16.4474014199999985
  5.3263312699999998  1.9791694600000000 19.8120967599999993
  3.4339199900000001  3.4528303199999999 -0.0296239600000000
  2.0024625399999998  5.1057837900000003  1.8368825200000001
  0.0814066200000000  7.3695876800000004  3.9329281400000000
 19.7815290399999988  8.4311100999999997  5.6173757599999998
 18.3317950200000013 10.5448032200000004  7.2141771800000001
 16.2199016500000006 12.0380861400000008  8.6918523800000003
 14.4928867799999992 13.7886145500000001 10.5329466000000007
 12.6179531300000001 16.1346431000000017 12.2435932699999999
 11.2067145499999992 18.0128898000000000 14.2682890499999999
  9.1287180499999998 20.2083029600000010 15.8610128600000007
  7.3275812800000004 21.5405490399999984 18.4854472299999983
  6.7214212800000004 -0.3023913900000000  0.2239469800000000
  5.1345609400000001  1.6139318700000000  1.5224515300000001
  3.9730282200000002  3.6706972400000000  3.4533967200000002
  1.8495731200000001  5.6006791299999996  5.1327419900000004
  0.1157352000000000  6.6805286700000002  7.4270538500000001
 20.0067889500000007  9.1036005299999996  8.9118525999999996
 18.2060536199999987 10.7650741500000002 10.8073013899999992
 16.7071275600000000 12.6185724700000002 12.7437334700000005
 13.9574384899999995 14.1567027200000002 14.1003128100000001
 12.1912867499999997 15.9837264599999997 16.3253665300000002
 11.0161411699999991 18.1165523300000011 18.2492771500000011
  8.6121493299999994 20.1471703099999999 20.0961449999999999
  8.9323577099999998 19.6840273100000012  2.0102857300000001
  6.9024775099999998  0.2473829400000000  3.4647856400000001
  5.8107585400000001  1.9260798100000001  5.9367864399999997
  3.5898424900000001  4.3398978200000000  7.3821207099999997
  1.9917818599999999  5.4062027099999996  9.1310694100000003
  0.1355103400000000  7.5808121599999998 10.7896522099999999
 19.9724008899999994  9.0016895699999999 12.6315428700000005
 18.4428073599999998 11.0280193999999998 14.1275906899999999
 15.6363889500000006 12.5813461600000007 16.3432541700000016
 14.2263795000000002 14.6150936999999992 18.2922537399999996
 12.1961473999999992 16.0098450600000000 20.4941836700000017
 10.5853180400000007 18.2107186799999994 22.1656435999999992
 10.7383508400000007 18.4221910899999983  4.1097106700000001
  8.6811542100000008 20.1965867500000016  5.5354134699999999
  7.0249858300000003  0.4928878300000000  7.3626166099999999
  4.8303321900000000  2.4540607500000000  8.7766388600000003
  3.9198557200000002  4.2293735799999999 10.9108344499999994
  1.6938632800000000  5.2702893499999997 12.6433548899999995
  0.1815690300000000  7.4908322700000003 14.3315795900000005
 19.9401774399999994  8.8112394700000003 15.9412757999999997
 18.1056397800000006 10.5382184500000005 18.3697159399999990
 16.3779100900000003 12.8188401100000000 20.0210134699999998
 14.4195397300000003 14.3347897999999994 22.1029939099999986
 12.7814896299999994 16.0696626000000009  2.4178695600000002
 12.3210624200000005 16.1569051299999984  5.0551469200000003
 10.5077075700000009 17.9044101900000001  7.4166864800000001
  9.3139193999999996 19.9382699400000014  8.9711789599999996
  6.8995380400000004  0.2334359700000000 10.1585612699999999
  5.3292715700000004  1.8357158099999999 12.4320355300000003
  3.7325973200000000  3.8619725300000001 14.2834785800000006
  1.7790782500000000  5.6179305900000003 15.5482178300000005
  0.2695284800000000  6.7057477199999997 17.7389356800000009
 20.2515481299999998  9.1013905899999994 19.3778141599999998
 17.9263693199999992 10.5551715399999999 21.2819363599999996
 16.5813136099999987 12.4535277799999999  2.1446001300000002
 14.6179786200000006 14.3086776699999998  3.9754904999999998
  5.7180745699999997  5.2444776600000003 15.9333656200000000
  3.7739168900000002  7.1148192400000001 17.8231905600000005
  1.7876957600000001  9.1212486199999994 19.6811234699999993
 -0.4217464300000000 10.8672328999999994 -0.3164719500000000
 19.6929542300000016 12.3464616300000003  1.8631460500000001
 18.4718863700000000 13.9031006399999999  3.8077941399999999
 16.8452777699999992 15.5610160499999992  5.4697162199999996
 14.8934885500000007 17.5953397500000008  6.9179128199999997
 13.0067907199999997 19.7827241799999989  8.6766243099999993
 10.8107332599999992 -0.4415479600000000 10.4357192300000001
  9.3238769799999996  1.6303367600000001 12.4911798300000001
  7.4941769699999998  3.8700351700000000 14.2038190300000000
  7.5898205200000000  3.5254877300000000 18.0253420899999988
  5.3078010000000004  5.0558741100000004 19.7757663100000016
  3.6879124600000002  6.9488367599999998 -0.2603294900000000
  1.4640660900000000  8.9607618299999992  1.7673808300000000
 -0.3417526400000000 10.5263047299999997  3.7420091000000002
 19.9723700599999994 12.4340393200000001  5.6253078099999998
 17.7591085200000016 14.1159438300000009  7.5175664299999996
 16.1678401899999997 16.0818228699999999  9.4313296100000006
 14.6721754000000004 18.6317902300000000 10.7446352800000007
 12.4799211700000008 19.7743240200000017 11.9561297000000000
 11.4215078600000002 21.6161319499999998 13.9619143900000005
  9.1010786899999996  2.0433213399999999 16.2358999200000014
  9.3906215199999998  1.3681260300000000 19.7721775099999988
  7.1273877800000003  3.4026298300000000 -0.0644965000000000
  5.4462430099999999  4.8732673499999999  1.3751330100000001
  3.7344034700000002  7.0453657099999996  3.4049964799999999
  2.4124579800000001  8.6067875399999991  5.4933447500000003
  0.2200956400000000 10.4516650599999998  7.1655727999999996
 19.7248878699999999 12.6291018899999994  9.2858341400000004
 18.1392598900000017 14.1455101800000005 10.8916671100000002
 16.2824001900000006 16.0451464299999991 12.4640309899999995
 14.1141137400000005 17.9652383700000016 14.4122959399999999
 13.1134615300000004 19.6740148800000014 16.4530580700000009
 10.8804938799999995 -0.2438956900000000 18.2004830400000017
 10.7018848400000000 -0.4393528400000000 -0.1681260800000000
  9.0543390400000003  2.2563217899999999  1.4041805000000001
  6.8596053899999996  3.0097861099999998  3.4862354899999999
  5.3274881599999997  5.3601476600000000  5.5773156500000001
  3.2317893799999999  6.7298515200000004  7.5806975100000002
  2.3657282400000001  8.8241892899999996  9.0326183300000000
  0.3541124700000000 10.9504568700000000 10.9256514800000009
 20.3375015599999998 12.1709644600000004 12.8887912700000005
 18.4519037499999996 14.0691785500000002 14.3977621800000009
 16.2871268399999991 15.9400412800000009 15.6469794600000007
 14.5649454100000000 17.3768617399999989 18.5540248400000003
 12.9343271200000007 19.8362674900000009 19.9512236099999996
 12.7455778800000008 19.7972105499999991  1.8805387600000001
 10.3384145800000002  0.1548533500000000  3.4051721700000002
  9.0656602199999998  2.1556160499999999  5.6247566300000003
  7.1908735799999999  3.5813622299999999  7.2565227099999996
  5.5136741999999996  5.9429126700000001  9.2017185599999998
  3.4237805500000000  7.9025921300000004 11.5649399000000006
  1.7089396699999999  9.4332715700000005 12.6371958800000002
  0.0155927400000000 10.7128502500000007 14.6163964899999996
 19.7181414799999999 12.6626368800000009 16.4588086800000006
 18.5754168899999996 14.1949529400000003 18.5682464200000013
 16.0950760399999986 15.6621157100000001 20.8272251299999986
 14.2816384500000009 18.4743398499999998  0.1950530300000000
 14.5926671799999994 18.1426095300000014  4.0217680299999996
 12.0322506699999998 20.3909122899999993  5.9436752000000004
 10.6849712399999994  0.2156216700000000  7.2387303100000002
  9.1362473099999999  2.4420099300000002  8.8848441499999993
  6.9943911300000003  3.5722001400000001 10.9092490699999995
  5.8700108499999999  5.7230125400000000 12.5874151800000007
  4.0172995399999998  7.3612127799999998 14.2349421100000004
  2.0659913599999999  9.0704613799999994 16.4147484800000001
  0.1716188300000000 11.0469407900000007 17.7327729500000011
 20.0660292499999997 12.7029254700000003 20.0393232800000014
 18.1284048700000007 14.2098792899999999 -0.0523461400000000
 16.4964730499999988 15.9712389699999999  2.1724290599999998
  7.8657008099999999  7.3224626500000003 14.3525395000000007
  5.8800472499999996  9.1025147999999998 16.0517277699999994
  3.9104444599999999 11.4135566599999994 17.9341564899999995
  1.8352998000000000 12.4869241500000001 20.0663805300000000
  0.3345508800000000 14.3634296700000004  0.7655389200000000
 19.7691091400000012 15.8499140599999997  1.7814440100000000
 18.0849891499999984 18.3433429399999994  4.0016745000000000
 16.3641530999999993 20.1991749100000000  5.1356302400000002
 14.6898963800000004 -0.0147980400000000  6.7392708099999998
 12.4069215199999991  1.5580293199999999  9.0023050300000005
 10.8666845900000002  3.5388168499999999 10.8933294400000005
  9.3137559799999998  5.7616943500000000 12.5363919900000003
  8.9780995699999995  5.1623095599999997 15.8193185199999995
  7.5307808300000003  7.0814931799999998 18.4740132899999985
  5.7373379599999996  9.3619878300000003 19.6836280799999983
  3.3187736999999999 10.8086102600000000  0.0493886800000000
  1.6011714399999999 12.3324036899999996  2.0158759200000000
 -0.1604095400000000 14.6415240299999994  3.8555427400000002
 19.5485097900000007 16.0506612599999983  5.6708990999999997
 18.0212033299999987 17.9592061700000016  7.6528738100000000
 15.6999020399999996 19.9667287100000017  8.8483952800000001
 14.4784981100000003  0.0026255100000000 10.7429325400000000
 12.9312113800000006  1.6460590300000000 12.4786486399999994
 11.4408571099999996  3.7342953500000000 14.3184815400000005
 11.3376043600000003  3.4646508499999999 17.8640444100000018
  8.9731311999999992  5.3155547500000004 19.2750047299999991
  7.1885137900000000  7.6802809999999999 -0.4254492700000000
  5.1455335199999999  8.7622307199999998  1.6394061300000000
  4.4867694499999997 10.4376245300000008  3.9191891299999999
  1.7383942600000000 12.2418435300000006  4.9149603500000003
  0.1452980700000000 14.0622021400000001  7.0055154200000000
 20.1064913700000005 15.9759497800000005  8.3691818399999995
 18.6035183500000016 18.1064191699999988 10.3928962400000007
 16.3293484900000010 19.3743491399999996 12.9590326400000002
 14.4664142800000004 -0.1337732500000000 14.0455126999999997
 12.6341278199999998  1.6914368900000001 16.3571908800000010
 12.7137722199999992  2.1486014500000001 19.5582426399999996
 10.9080652199999992  3.9393050999999999  0.0498319500000000
  8.3584594400000007  5.1012795100000004  1.7667290099999999
  6.8852575600000003  7.0638899000000004  3.5788374799999998
  5.4182713299999996  8.1709459800000008  5.9463497500000004
  3.9241421000000001 10.5573679699999996  6.9258865700000003
  1.9871292800000000 12.5002695100000007  9.1006467900000008
  0.2568025700000000 13.9467466600000005 10.4894488999999993
 19.9507615600000001 16.3251479199999991 12.6414636799999993
 18.2265790000000010 18.2384043100000000 14.5606083399999999
 16.1070965100000016 19.5814344799999986 16.2502835599999997
 14.6348171499999999 -0.1666721100000000 18.6801352999999999
 14.8398404399999997 -0.0072488200000000 -0.0777080500000000
 12.3627045700000000  1.7378398300000000  2.0718038900000000
 10.5760506599999999  3.6874408500000002  3.4144175600000000
  9.0327167300000006  5.2369326799999998  5.6341410900000000
  7.3260445599999997  6.9017470899999998  7.4269230200000003
  5.1624373400000003  9.3031188399999998  9.3337668399999991
  3.7911489700000001 11.0022628800000000 11.0100663799999996
  1.6991736300000000 12.7997854600000007 12.9954150300000002
 -0.5491882800000000 14.1027456200000003 14.7864861699999999
 19.6841998199999999 16.4749958399999983 16.1652535399999984
 17.7682040999999984 17.7474505899999997 18.1542333999999990
 16.3821151500000006 19.9616260300000015 20.4512898800000009
 16.5453988900000013 19.9294435700000001  1.5037598400000001
 14.5768322200000000  0.2890829800000000  3.7065384600000000
 12.4597766300000004  1.8004629000000001  5.4607725299999998
 10.9904858200000000  4.3081454900000002  7.2461550499999996
  9.0643535199999992  5.0302528899999999  9.1383080000000003
  7.2125219100000004  7.3229664400000001 10.6061271799999997
  6.0569979500000004  9.0810096900000001 13.1569524100000006
  3.9924467899999998 11.2326683700000007 14.4573705799999992
  2.0294479999999999 12.9929530799999995 16.2780643800000000
  0.4845999700000000 14.3695054700000000 18.3240938900000003
 20.2820093300000011 16.5420969400000004 20.4438314400000003
 18.5178803899999984 17.8662752900000008  0.0109193300000000
  8.5491558800000007  9.1645332600000007 12.5371188599999996
  7.3725498800000002 11.2083272699999998 14.5135909900000009
  5.7428114800000003 12.8698985900000000 16.4168563499999998
  3.8227211300000001 14.6293704600000005 18.3961912000000005
  2.0361297100000000 16.1831256600000017 19.8225479600000014
  0.1127585700000000 17.8474505599999986  0.2463015500000000
 19.9872996799999996 19.9391470499999990  1.8519134600000000
 17.8045228599999987 21.7665181600000004  3.5190978899999998
 16.1118762699999998  2.0857241499999999  5.5688742099999997
 14.4587395799999996  3.7987970700000000  7.3588182499999997
 12.8872709200000006  5.4983480100000000  9.6935696000000000
 10.5130286900000005  8.1350321200000000 10.7980532599999997
 10.8775080200000005  6.9158259800000002 14.6107556899999995
  9.6541517900000002  9.2744566699999993 16.4302766399999989
  7.5640211099999997 10.6651101100000005 18.1176765800000013
  5.6907535800000000 12.7966495600000005 19.6875696600000012
  3.4997813099999999 14.0746663999999999  0.3585419100000000
  2.0664400199999999 16.1948125400000009  2.6586039499999998
 -0.3171108100000000 18.1336703800000016  2.8252353100000001
 19.7950740600000010 20.3058136900000008  5.6477471299999999
 17.7717283700000017 21.9216611999999991  6.9247130200000004
 16.2730883300000002  1.5373318400000000  8.4992669900000006
 14.0480153800000007  3.4849131299999998 10.3404344800000008
 12.3025435400000003  5.6123059399999997 11.9527319399999996
 12.4562366600000001  5.5100687600000002 16.5273841300000015
 10.9759674300000007  6.6035201800000003 17.8289685499999990
  9.2557003299999998  9.1930860899999995 20.0386470999999986
  7.0126914300000003 11.1128402400000006  0.3641706200000000
  5.6726490500000004 12.7941962500000006  2.0335632100000001
  3.6015923999999999 14.0818312300000006  3.1883744100000002
  2.0352700600000002 15.9886685800000006  5.1732044000000004
  0.0708937800000000 17.9703540199999985  6.6862693100000001
 19.6591397999999984 20.1195680299999999  8.4733927500000004
 18.1407525000000014  0.1784064800000000 10.8309919499999996
 16.0037448600000012  1.6848217599999999 12.8422480300000004
 13.8958636400000000  3.6341854100000002 14.0994765300000005
 14.0985707300000005  3.4390832200000001 17.6413434199999983
 12.6066545199999993  5.5554000800000001 19.3786899699999999
 11.0235327000000005  6.8167866200000002 -0.1189470800000000
  8.6703847700000001  8.7589002499999999  1.9486490000000001
  6.8270085099999998 10.3060580500000007  3.8277313899999998
  5.3060720999999997 12.5324874800000003  5.8654733900000000
  3.2220595599999999 14.7501659800000002  6.8772220600000002
  1.5885354199999999 16.0616407999999993  8.6462889000000001
  0.0591161900000000 17.9519564000000003 11.1821404999999992
 19.8518391500000000 19.9609671000000013 12.6357054600000005
 18.1219400300000011 21.8286635999999987 14.4627791899999991
 16.4018853399999998  1.5629575899999999 16.1127011300000014
 16.1965333600000001  1.9011641699999999 20.0372803700000013
 14.6882531600000004  4.0823742000000003  0.6003343500000000
 13.1418027500000001  5.5322947700000000  1.7277729300000000
 10.8857956399999996  7.5043909099999997  3.0975973799999998
  8.7545747600000006  8.8253620099999992  5.5479399799999998
  6.3683301400000003 10.2252961599999992  7.1391884000000001
  5.1502696300000004 13.3314976900000008  8.9205787700000005
  3.6371671999999999 14.8343538499999994 10.9942857099999998
  1.5541073500000000 16.3039669200000006 12.6762305800000004
  0.1672327300000000 18.0712935899999998 14.3344081200000009
 19.4110290300000017 19.7326434999999982 16.2870393399999998
 18.1487362599999997 21.7143264599999988 17.7835591099999988
 18.0013129200000002  0.1653417300000000  0.3394666800000000
 15.9372241199999998  2.0279729600000000  2.0299649899999999
 13.9448333600000005  3.6484132200000001  3.9634638199999999
 12.3721226899999994  5.5919366200000002  5.5242493200000000
 10.1440146799999997  6.8802369700000003  7.6355274700000004
  8.4347711800000003  9.2803925899999999  8.8745657900000001
  6.9460090900000004 11.0589474899999995 10.8992304299999994
  5.3142264499999996 13.0412451199999992 13.1761954200000009
  2.9753027500000000 14.5936440100000002 14.0973952300000001
  1.6458333100000000 16.4043434099999992 16.0661615100000006
 -0.2294515200000000 18.2426583700000009 18.2797172100000012
 19.6188380199999983 20.0841675200000012 20.2385612399999992
