Li                                      
   1.00000000000000     
   -10.5278949999999991   18.2348490367503473   -0.0000000000000021
   -18.0478199999999980  -10.4199137352859115    0.0000000000000046
    -0.0000000000000002    0.0000000000000000   22.0820499999999988
   Li
   504
Direct
  0.0145282577767816  0.0001518359332664  0.0055208932141682
  0.9177255311917349  0.0411579192830018  0.6642759395074265
  0.8551125296185944  0.0717884107327720  0.3202835302881724
  0.7838076368484153  0.1040643041132796  0.9986221591745306
  0.7239513431727715  0.1726425149390920  0.6798697358261592
  0.6454513284258283  0.2007926905699620  0.3214490905509209
  0.5686940492886521  0.2396808851132306  0.9824958647408195
  0.4911261208799473  0.2834577039010000  0.6484921517703270
  0.4432012693819019  0.3227797624356086  0.3343756757185119
  0.3603313282822000  0.3732343696155240  0.0025193806734407
  0.2785364071506820  0.4030116757503350  0.6833101052664929
  0.2095620309830863  0.4550215173812333  0.3307270891968841
  0.0701728852592112  0.0507194582029271  0.6821700068607726
  0.9933931886068663  0.0875854306299431  0.3391196089131228
  0.9168475692061406  0.1238647609734826  0.9937721832891455
  0.8515380305026028  0.1528828803900879  0.6604198102078414
  0.7795221037183921  0.2087262224398074  0.3307731057578422
  0.7173007787303831  0.2558554937997144  0.9902436553671450
  0.6578939633443568  0.2892388517159858  0.6734034670694058
  0.5907016375693601  0.3274249800442206  0.3346949395549785
  0.5025300453476760  0.3771181809345663  0.9970880715332129
  0.4308531580122477  0.4128356628129453  0.6631724758344433
  0.3512278718411821  0.4517340767019249  0.3369114982531087
  0.2930508561792919  0.4948062185064117  0.9892523280220828
  0.1251947136165654  0.0879083806514984  0.3394970258649010
  0.0672537627350707  0.1189441565557630  0.9994847760964234
  0.0020380522425469  0.1739739148543080  0.6781889906054914
  0.9247790787832031  0.2163935999125499  0.3292039230959105
  0.8632369707114904  0.2627916519685698  0.0023560905803564
  0.7917415028572279  0.2938960118605394  0.6655050219522209
  0.7201613661366224  0.3305632677108434  0.3436793282326605
  0.6413388461391278  0.3756722838783944  0.9929904252549022
  0.5697987561846887  0.4060709539300049  0.6655367205490421
  0.5072045220163091  0.4495863438735057  0.3321085886500583
  0.4355375835933444  0.4993784890017494  0.9915931790753092
  0.3614580786875763  0.5348412606439723  0.6502449487253230
  0.2113146180192658  0.1209455030872491  0.9991728883867239
  0.1424677968815828  0.1687340628147567  0.6874802719856206
  0.0704114437460035  0.2018135111854917  0.3401409262274129
  0.9993548280547770  0.2519538571692479  0.9966324050529707
  0.9276396075023428  0.2931583639671800  0.6729301649982702
  0.8462490430442884  0.3432898206530908  0.3318855613496012
  0.7832958506812275  0.3810320880911036  0.0014571042996465
  0.7176900409320268  0.4088351871041453  0.6753642555831547
  0.6569518192704109  0.4464564311181149  0.3462538636584895
  0.5645821065626677  0.4931504321978721  0.9902026686833878
  0.5067057745424961  0.5271210179247632  0.6701727493597716
  0.4263360095118713  0.5659505944285783  0.3362815911566202
  0.2914396200131009  0.1710851499883219  0.6738019504529689
  0.2103829232786580  0.2017418233298685  0.3356505876945306
  0.1396355157236897  0.2537665010062256  0.9962926494596260
  0.0560332342397487  0.2988038141677762  0.6667025638471031
  0.9974897287561646  0.3286482850602752  0.3330327184296777
  0.9255201704851928  0.3834439037373940  0.9888675892863219
  0.8591034463977039  0.4050272227995890  0.6662069531587846
  0.7847961390188232  0.4684871337371774  0.3528221229460158
  0.7118703908083290  0.5057126684530857  0.9999602342173830
  0.6423523742707005  0.5409457896121168  0.6605527955964234
  0.5766391248304430  0.5774959114670466  0.3430243423957435
  0.4950728217317248  0.6217903267793403  0.0021343851680413
  0.3454249687951148  0.2182295417478031  0.3365472870498891
  0.2804324646259246  0.2508887044433692  0.9991635382584505
  0.2177099967888054  0.2977162224222738  0.6670939831220366
  0.1542862183293892  0.3236883802853256  0.3333109086339334
  0.0617882086068633  0.3730072988066624  0.0025530704803245
  0.0101976349406954  0.4214196069162952  0.6745157668785282
  0.9242829714078411  0.4769804268177680  0.3336680516528148
  0.8524309418123934  0.5134909994585541  0.0081207075430072
  0.7919290159731815  0.5448860190527753  0.6675614048514547
  0.7083884898856709  0.5939411169479243  0.3417896590216927
  0.6297418557888435  0.6295035447577604  0.0032862723343143
  0.5754385595725964  0.6657822914827634  0.6583133305105306
  0.4361064016440892  0.2436539401802094  0.0091155015046169
  0.3600675299445442  0.2964330934059873  0.6617803419519461
  0.2792022833716814  0.3234989370961543  0.3381523142099567
  0.2034740148984966  0.3639234221041789  0.0059283313822789
  0.1412139163530242  0.4103292556162756  0.6659077839240481
  0.0647964009744300  0.4549869615368110  0.3326138768819007
  0.9970682828945883  0.5003396698246902  0.0108933667843374
  0.9296853627602104  0.5613674182158093  0.6744165129596240
  0.8525484680640503  0.5908459002699971  0.3313215797446318
  0.7687525335791605  0.6326279481674035  0.0055326865032939
  0.7267017175254864  0.6745177102593019  0.6512941529432297
  0.6394803115934380  0.6999508824321694  0.3303762875276490
  0.1406370705308859  0.5030375013903736  0.0149561938316438
  0.0736528576405036  0.5414773090772655  0.6766578691742851
  0.0018894873786621  0.5815538638613162  0.3321021685033756
  0.9167618287464947  0.6180353852680796  0.0088091843827911
  0.8565949691385981  0.6697467066593390  0.6575591505317675
  0.7809027141063893  0.7210481665194379  0.3405619799792134
  0.6890743425366068  0.7608966237795229  0.9964818533605353
  0.2160580420840503  0.5335859405198775  0.6811570646747001
  0.1279408928116368  0.5845306200013525  0.3320555111504575
  0.0593674258712298  0.6237435792249357  0.0195191279795139
  0.0068165082290008  0.6818728221523997  0.6653528282020886
  0.9229677934327754  0.7165905667475627  0.3226158585819690
  0.8572114686418217  0.7545511798845013  0.9903672797588996
  0.7884829216597851  0.7935777862075639  0.6632515817145617
  0.2718042770646392  0.5775254529639895  0.3166709159702137
  0.1996751663683867  0.6119575552263967  0.9979970034485035
  0.1593918146497018  0.6702552281388279  0.6762735665393365
  0.0691405946185668  0.7105532208110503  0.3427196034788409
  0.0073201785298878  0.7449090975561674  0.9921620239062960
  0.9338811934169016  0.7951108407127379  0.6514293786129457
  0.8684845765705091  0.8316808012683126  0.3153964428121512
  0.3646667545268940  0.6163062795589767  0.9961763803632380
  0.2833635328533788  0.6507191610560454  0.6672379081652267
  0.2061723263555209  0.6935426453845039  0.3556086088021715
  0.1457876021130176  0.7371474113024377  0.9986670875213122
  0.0767665414838561  0.7987811393145989  0.6770556633102416
  0.0026029035829396  0.8332130237548725  0.3358882947914736
  0.9282252714436368  0.8725780978475441  0.9987859179741037
  0.4390029866887488  0.6627446938995618  0.6538969878249503
  0.3444754670344139  0.7030958599424082  0.3354906537210098
  0.2992097429163678  0.7352640825096586  0.0098049936486859
  0.2258942002590203  0.8044949145416993  0.6701437416363092
  0.1412754012161699  0.8354275059211176  0.3387054548830406
  0.0688559190424840  0.8682059985190591  0.9986533070978467
  0.0084442675465723  0.9187843838157619  0.6736888296150028
  0.9258849247962573  0.9556048852250356  0.3278772776984056
  0.8728175885212295  0.9812017525604375  0.9961555865510690
  0.7900429818114532  0.0503418530327835  0.6664086119721659
  0.7190689130241807  0.0811156913088311  0.3232612705795006
  0.6404098831852494  0.1243755125474095  0.9933669976292947
  0.5759414304352362  0.1832955345425660  0.6653550988246124
  0.5025073997726395  0.2031230707348968  0.3284926471953469
  0.0643550170354459  0.9641175825073418  0.3203894185548890
  0.1465361385747173  0.9861516421030316  0.9966075867050392
  0.2260139487318042  0.0514718076319554  0.6646137600449222
  0.2758622730840372  0.0803207824828718  0.3287919550041778
  0.3538374660692085  0.1210968122552956  0.0015848179856519
  0.4410468510480854  0.1702909383008659  0.6609739340323912
  0.8678827904320201  0.9191230780240929  0.6654257136452486
  0.7824421307847587  0.9461795908603818  0.3346752085970266
  0.7054099426464120  0.9898307164999736  0.0051987102646720
  0.6471935556500057  0.0443706077210493  0.6612779655874377
  0.5734949227337509  0.0847551737786603  0.3220062598354758
  0.4919897591560627  0.1093369700345903  0.9914255157469540
  0.1393684554204242  0.9177750783763159  0.6689003045459998
  0.2045198107414024  0.9687130959359394  0.3351897903500785
  0.2899640264182324  0.9983740765417437  0.0026895220326040
  0.3611500153355820  0.0436973828029394  0.6590267167224084
  0.4277418308009970  0.0943932662348885  0.3417352854467737
  0.7822265862141933  0.8684932027318837  0.9946208128321388
  0.7119578845650096  0.9252471748320588  0.6804476903186085
  0.6452051870163586  0.9458161183808613  0.3241932451923617
  0.5897293114309221  0.0051830348946851  0.0021398986960008
  0.5018143797266248  0.0514747859158575  0.6699797527856362
  0.2177228524711268  0.8668783836542815  0.9924856324480729
  0.2983417938074240  0.9278984420657892  0.6661416933663347
  0.3557377107170652  0.9455610441610318  0.3367994081165477
  0.4329937487193405  0.9973769861305399  0.9968470205438322
  0.7072857372625521  0.8241256840494984  0.3234781077843749
  0.6401468576926703  0.8650168850105757  0.9982271111604248
  0.5769520445949965  0.9109717619340501  0.6775836976186511
  0.5070787614924797  0.9591043351649731  0.3222676019663027
  0.2773911931578183  0.8218750710340501  0.3317457351106441
  0.3438862355251473  0.8584874489243575  0.0014771889385301
  0.4291597991374445  0.9216084378312672  0.6486777178749250
  0.6486565047468957  0.7979074905976304  0.6722976621282868
  0.5688146447649416  0.8262532508331972  0.3240573954863777
  0.4914075124324242  0.8869862629891188  0.9945990163956679
  0.3592809255336320  0.7882400783296291  0.6419130520037797
  0.4395133969115008  0.8301529966623349  0.3312869040691453
  0.5526563679636567  0.7574770674240554  0.9914337101854187
  0.4918588061124893  0.7942635013216233  0.6689672996845886
  0.4175463552621679  0.7445425471977885  0.0157969051786395
  0.4915430177505655  0.6973727459127446  0.3310967247153229
  0.9953585156786531  0.9989313562291358  0.7883168215813328
  0.9301758772854782  0.0417609618450072  0.4373510362488986
  0.8593781857848413  0.0833400856594722  0.1152370762678316
  0.7928254977615268  0.1108556532724663  0.7808438641339919
  0.7168483932660692  0.1697650766007257  0.4547946141775796
  0.6529549704474249  0.2033626494170164  0.0958272542630780
  0.5769988743866250  0.2535555222370007  0.7619529332648014
  0.4966901546600155  0.2957019066128552  0.4376269467735128
  0.4268976597441210  0.3432143634227387  0.1273890956681996
  0.3647422303796901  0.3807588343909032  0.7842354034158987
  0.2812138288638977  0.4136178816706320  0.4341132657520461
  0.2011044865927900  0.4580608002031354  0.1145347782474886
  0.0667111011546382  0.0314689686460525  0.4447037593882825
  0.9914885632161656  0.0906785602227487  0.1162737599090633
  0.9251614827503474  0.1110509004167852  0.7808580901682589
  0.8663146020485897  0.1616200728212931  0.4333150373267003
  0.7784928800905888  0.2035853288739986  0.1130070736186184
  0.7222678108892353  0.2490652957021027  0.7886395742243124
  0.6436412221545567  0.2897712175478944  0.4536118168376575
  0.5686841739824402  0.3249424350503887  0.1000611831781910
  0.4977910702059702  0.3632673171016734  0.7731388938074133
  0.4188269998314524  0.4114036328270956  0.4316039226430490
  0.3470483591053721  0.4575464075670297  0.1013035130343454
  0.2865969274239220  0.5116095412497614  0.7731900475725766
  0.1463971312171850  0.0762688432311620  0.1054910739718480
  0.0763361822369006  0.1102575307549074  0.7920665948134342
  0.9923376024034312  0.1712161234622798  0.4542201258488205
  0.9171573774953004  0.2164291422041060  0.1087450870729825
  0.8589189718960100  0.2403545231707085  0.7687658940179887
  0.7812330373015541  0.2963233234129206  0.4462349781836394
  0.7107949982345261  0.3369654363829966  0.1101290432727069
  0.6516465378407190  0.3779657090163440  0.7962413861031905
  0.5639926502394061  0.4116705218418559  0.4625766534357112
  0.5125316847497601  0.4592007831849756  0.1144652271867841
  0.4196350540316374  0.4766872305262098  0.7578399111495528
  0.3441155850977680  0.5342527104230399  0.4412287726909412
  0.2215798949165304  0.1233561328851778  0.7954927622208956
  0.1217734352619928  0.1644826571725844  0.4520470631123459
  0.0622524610409130  0.2084552093643239  0.1148633378694441
  0.0072197147682473  0.2541571603102213  0.7785163895562235
  0.9251684722699594  0.2918489089890883  0.4385813785404906
  0.8342598058804214  0.3390724431521619  0.1142755486922624
  0.7940922020602130  0.3738590409474014  0.7949406590420693
  0.7076936724972001  0.4197047368482743  0.4592845292896257
  0.6546584694022002  0.4546992730021060  0.1011852323493514
  0.5786522120173956  0.4908158398279170  0.7634179159090735
  0.4916692853372737  0.5305122119593477  0.4374902855486695
  0.4222036380373950  0.5747363399083270  0.1147978027402345
  0.2756130281783484  0.1808778161964355  0.4514737227748356
  0.2065764326378670  0.1979074180545908  0.1103502070686346
  0.1488553082966533  0.2427993704536178  0.7690077003720219
  0.0728523051663785  0.3053801938793939  0.4458299949506497
  0.9901259297286202  0.3385019728166441  0.1052856492037648
  0.9347505942488823  0.3768507909852943  0.7818629185243253
  0.8585059898701388  0.4187809221155874  0.4484894115356113
  0.7865772671609221  0.4757432660533425  0.1179960972826350
  0.7228659412392133  0.5113667596173599  0.7944901732402556
  0.6424077214725372  0.5399696085814156  0.4486633999107852
  0.5665885952994572  0.5829079861440221  0.1127568903249454
  0.5080818344528808  0.6072396336772385  0.7706513462291795
  0.3635677784971705  0.2219766261298304  0.1182793490640606
  0.2992317332702470  0.2463497509096868  0.7812228461578528
  0.2199603949321727  0.2837510972513897  0.4536251507446067
  0.1372236231628676  0.3181229602146871  0.1196315396441889
  0.0804834351947150  0.3686881991858684  0.7894527469143497
  0.9945546895195747  0.4291735964221886  0.4489160779909440
  0.9116677301249752  0.4633178357472545  0.1025217998328927
  0.8635671969343761  0.5002456970000040  0.7860060927314265
  0.7729926247075838  0.5591571481377855  0.4420721477399070
  0.7186419099178565  0.5797243040868878  0.1090844645311435
  0.6398188360338963  0.6232410604279579  0.7685709234423399
  0.5743479306031887  0.6570629750929697  0.4423534662769057
  0.4348257724600941  0.2383506630854129  0.7691088273054376
  0.3587777822635658  0.3038574586845542  0.4427605272155404
  0.2832826719575579  0.3335944410079108  0.1220832372900134
  0.2104999064947179  0.3754641090676785  0.7988585357790612
  0.1303028778327970  0.4204355830221331  0.4340435711358310
  0.0713536866966109  0.4571095583064988  0.1113104911002409
  0.0044068648494004  0.5047856100950909  0.7892317701481488
  0.9198523484451755  0.5487298748583385  0.4484340815277577
  0.8545132309793715  0.6016558885304946  0.1053766683799751
  0.8009331016290560  0.6284040024792432  0.7757982492567521
  0.7221552002993477  0.6844708295818833  0.4565271059525742
  0.6427057623815955  0.7154007779195268  0.1117685627013785
  0.1423781212750939  0.5008786656182593  0.7904669294743911
  0.0472878067652047  0.5485416840147792  0.4401412423212534
  0.9921247174947965  0.5832074692295350  0.1203427906376433
  0.9490756683092982  0.6309004376697516  0.7788937304281092
  0.8648416016592648  0.6589855282299695  0.4408415187901511
  0.7721818253113710  0.7203036689314004  0.0915386302449264
  0.7240836472775740  0.7339006888502126  0.7790235046112102
  0.2010874635074273  0.5400675814795051  0.4311301305811739
  0.1361851972041279  0.5804084472961648  0.1272121170815197
  0.0588365945023313  0.6347551089783607  0.7698125703908829
  0.9989730824747625  0.6737203540305359  0.4390479991667462
  0.9254341986901409  0.7101920883952246  0.1054585240047885
  0.8722449110764714  0.7448502889491664  0.7599036194556206
  0.7820794454118385  0.8001529401914453  0.4425809519496582
  0.2898426637778826  0.5801362978590276  0.1087641070462197
  0.2106728347967959  0.6274856102236726  0.7869598293636670
  0.1308521860425671  0.6601456378013140  0.4504790284416558
  0.0767248532186215  0.7075606068447016  0.1158552086423157
  0.0073088789109548  0.7755945831827731  0.7887770234194775
  0.9237859538675224  0.8003947233077398  0.4474456805414349
  0.8622278842879894  0.8415903958563362  0.1155484975353289
  0.3587858653371114  0.6200544654283320  0.7715230406597229
  0.2751314736675496  0.6624345817961839  0.4429954746049418
  0.2165539446175373  0.6927825365739935  0.1178843952441042
  0.1555895630197952  0.7519484856027887  0.7804955518169763
  0.0678929175371579  0.7794164105651049  0.4378882798472077
  0.0030882876793683  0.8292864025451152  0.1108755586551098
  0.9300172852273718  0.8736073732418177  0.7740264930112914
  0.4235622337014888  0.6534879723770146  0.4341152193750162
  0.3578604863146282  0.7025493962944367  0.1058453866375615
  0.2941328512724226  0.7384193578921625  0.7710049456458989
  0.2180986653017030  0.7927123781189920  0.4484851343059191
  0.1552341223137788  0.8161135583058439  0.1070240838146788
  0.0865457555158855  0.8763808212422930  0.7845316173090779
  0.9880806920715060  0.9163348976410362  0.4385620270762871
  0.9298502697618005  0.9646707094943352  0.1220173444041635
  0.8592380554951689  0.9866687052365677  0.7665271444453765
  0.7801468889851293  0.0401288453778861  0.4300086676735191
  0.7148613106010657  0.0715175413113371  0.1173132974520001
  0.6508168216882027  0.1175229416645820  0.7773712857275470
  0.5677550973588410  0.1626713774456618  0.4403388657303111
  0.5029693780130771  0.2075209011427930  0.1036017403275480
  0.0694988500934315  0.9398978704129135  0.1147753682289476
  0.1646484792198279  0.9964783856922281  0.7709788131083855
  0.2033419583780116  0.0397979574874938  0.4615567943193710
  0.2826962711567447  0.0734791426538095  0.1143203244264015
  0.3625909414826438  0.1312856300716447  0.7736967980780776
  0.4184917852599952  0.1679644747354629  0.4417793266476622
  0.8436269368602964  0.9265771677445329  0.4429002406932341
  0.7870189506338505  0.9661671401153527  0.0995534649183369
  0.7094457360691706  0.0010571073108068  0.7811771715035505
  0.6363826594533393  0.0390122408941593  0.4492154274625761
  0.5643489167764812  0.1060932949693338  0.0957197506572101
  0.5006648023361535  0.1258454284677697  0.7788055370764937
  0.1410483366508828  0.9217404884254634  0.4356814797539172
  0.2198674561615022  0.9418363856473846  0.1095688842294962
  0.2959182313833821  0.9996315810668577  0.7763607658709191
  0.3432944807365743  0.0423376087929626  0.4267502546185682
  0.4281300464304820  0.1010730944144314  0.1136526300773681
  0.7859807564550394  0.8640931555179918  0.7873663418930761
  0.6928396716391063  0.9137935803409505  0.4548980135449412
  0.6330611024531052  0.9624032894160877  0.1072564834333747
  0.5768741297656419  0.0027108289871549  0.7812016551905288
  0.4942869191986432  0.0428027758922198  0.4342041504298706
  0.2421420810378692  0.8784959017627543  0.7694111180800718
  0.2847096372350819  0.9161951362381160  0.4360146218308500
  0.3675225621324785  0.9639133128399067  0.0997230945496455
  0.4376399369265513  0.0064847741295466  0.7902676336662608
  0.7115400589039425  0.8446594426122047  0.1106922065659646
  0.6377758043271484  0.8708848846289072  0.7985217364329884
  0.5618001321237855  0.9129947233524405  0.4352867301722441
  0.4976402975888661  0.9771821715429141  0.1033722403490600
  0.2904182224437193  0.8227709251325592  0.1118092428012787
  0.3724466073761690  0.8707478152174275  0.7719507350993240
  0.4320076593415720  0.9095828306829432  0.4370663425723578
  0.6394227689987630  0.7919959572608661  0.4499435772493925
  0.5690818367616544  0.8360490522493080  0.1037679255322743
  0.5013329558737638  0.8690381741684803  0.7883008574837902
  0.3550856235627577  0.7904836988135813  0.4389251704438664
  0.4245268084163740  0.8366476541935413  0.1018040621228522
  0.5658792759010822  0.7410495993775115  0.7749638240109036
  0.5059656026886046  0.7830451019171676  0.4503018315781375
  0.4182095843879594  0.7332467975395289  0.7739800213295425
  0.4935961323571547  0.7080821315891797  0.1088569000613617
  0.9981336447272895  0.0182845192573851  0.2160453481447604
  0.9360346647633975  0.0392717814678321  0.8970986946411230
  0.8599831304190104  0.0730898629960492  0.5389780785751341
  0.7898363400853725  0.1334831084528147  0.2068520332124990
  0.7223003369247394  0.1605083569312953  0.8942180399917561
  0.6588276758404703  0.2117264802983101  0.5596711654941444
  0.5749805138258353  0.2645538637572642  0.2120163005699212
  0.4981679329619908  0.2927530582313622  0.8840064722251810
  0.4357451551227314  0.3344726559833404  0.5518433773132472
  0.3542804221206879  0.3746678881636498  0.2332534108019857
  0.2848293077151780  0.4112735053569878  0.8849287231031511
  0.2065151766602824  0.4519172135035774  0.5539240989853766
  0.0874285327117192  0.0232759955278254  0.8879785010902523
  0.0037917682384077  0.0774613295191173  0.5697564089384812
  0.9289515210427908  0.1339887070223043  0.2236009528100880
  0.8616010179048246  0.1655665953896275  0.8886731132299772
  0.7917988550774595  0.2036254247119231  0.5345958518344105
  0.7232056156781681  0.2526193864261685  0.2253279994384556
  0.6369910959383276  0.3022290617939660  0.8842926431196361
  0.5727157093853279  0.3269489842396851  0.5558245217269260
  0.4985179616667565  0.3714432404555410  0.2128392689990264
  0.4410111717812342  0.4228301839036632  0.8936418665839483
  0.3472907722849357  0.4485974042801431  0.5604629026743453
  0.2900421995415883  0.4863413807128580  0.2124816848979165
  0.1436614089040873  0.0839915575125261  0.5653687470139772
  0.0697935541304133  0.1300717566131624  0.2275071023750073
  0.0002583827917064  0.1524578953634901  0.8869573766928340
  0.9414862019636629  0.1990923126326507  0.5636554078991765
  0.8581295001594427  0.2654589970378112  0.2373109385224623
  0.7905934676123962  0.2942873097853820  0.8891535052225663
  0.7187885004434946  0.3457179144142302  0.5566766160750447
  0.6392607889495778  0.3907075888568059  0.2251288082401786
  0.5629077846203216  0.4302602812325631  0.8936567777901061
  0.4941484566283805  0.4631912078137077  0.5500016058291664
  0.4304285678767457  0.4913284204071857  0.2124929954419983
  0.3618625763997159  0.5265034387108400  0.8871060558236223
  0.2071041763092651  0.1270778053944781  0.2228187568636031
  0.1447740975199991  0.1599222915892184  0.8756811912843219
  0.0676108985422559  0.2077400555464024  0.5700054673365926
  0.0032452037081967  0.2621320290265814  0.2055698447381502
  0.9204735495468199  0.2917667646338344  0.8827952581395309
  0.8599555294670793  0.3359020436319256  0.5520349428608284
  0.7976942695073745  0.3942909275760016  0.2280325567598993
  0.7084622424682010  0.4222397009627912  0.8919107804755413
  0.6439542133588461  0.4554660045894963  0.5752029435672839
  0.5745913450141273  0.5006194472120455  0.2350520191739420
  0.5036541020264096  0.5384361262217041  0.8774460315052295
  0.4090348678572084  0.5810354519194263  0.5519092303477251
  0.2937482005935195  0.1881615551192581  0.8930059600444693
  0.2039070607265856  0.2083207802888012  0.5607651363890582
  0.1364510487741910  0.2520893773245447  0.2256602308209636
  0.0696648481314313  0.2954663097083952  0.8964890872903553
  0.9879875603513071  0.3353199634812043  0.5611341809297627
  0.9262676763186732  0.3978450417736354  0.2151191252623761
  0.8573900297187507  0.4319017999444910  0.9006254156656652
  0.7863437691054500  0.4463920420833958  0.5656305496998684
  0.7171507787952294  0.5197558564788238  0.2367680210849983
  0.6469592907817798  0.5509173200627515  0.8775309285143393
  0.5645055045370952  0.5987956363323335  0.5564091227943067
  0.5035189548247629  0.6244591004949740  0.2324690361628541
  0.3539814825442349  0.2069296369217994  0.5569464035268439
  0.2779334301349294  0.2499112657678069  0.2185936441589433
  0.2187951736541578  0.2779046818542241  0.8822577908301099
  0.1212868596829182  0.3229724297105392  0.5549719564080320
  0.0786789631332567  0.3814604953631076  0.2248030078729073
  0.0025432746236760  0.4121385603250616  0.8931543724427726
  0.9417916471689267  0.4774564028635311  0.5617314905092599
  0.8549849364931035  0.5102684696555571  0.2123712639904340
  0.7890047902679527  0.5475285837049597  0.9027352220468643
  0.7110647453282510  0.5805773003599555  0.5614908738092694
  0.6284565870057222  0.6373307053120740  0.2127052814389998
  0.5842394580639265  0.6563895501310455  0.8809075719872013
  0.4255826482790539  0.2547338251986204  0.2119662812103016
  0.3588758742701899  0.3078590698294974  0.8812154251982918
  0.2802136711380570  0.3257877922482564  0.5570458915725638
  0.2227313905924504  0.3699497156243083  0.2171935794004654
  0.1512033517326614  0.4187018725425276  0.9167294617121158
  0.0700604807974585  0.4718314513617088  0.5480887444779796
  0.9941064515139644  0.5030414083051795  0.2228098337790172
  0.9345942215705065  0.5414489682243584  0.8981546541195229
  0.8386037102187416  0.5824174433370146  0.5557481397786859
  0.7743151067908940  0.6311065884296099  0.2283844095090828
  0.7069321422006425  0.6684401060508449  0.8785873630392089
  0.6459716202314070  0.7078358405183494  0.5629650200049383
  0.1355393110773235  0.5032626890453074  0.2333210299768353
  0.0776384210929422  0.5416644716518491  0.9068148745247839
  0.9864919343663345  0.6059370182462160  0.5621309452700274
  0.9200827244198848  0.6321451231225410  0.2219843687519969
  0.8629382110200154  0.6734622055679509  0.8854557063316122
  0.7938200940097317  0.7028142125406518  0.5605671461662283
  0.7160548104153293  0.7530683640297013  0.2103532448300740
  0.2097089337213944  0.5284496895037307  0.8917283540251049
  0.1339324104210959  0.5909972454285253  0.5593999270901051
  0.0521106723403051  0.6165289604629152  0.2230605980875850
  0.0177072565725496  0.6671047058351718  0.8963461974771363
  0.9340690922285333  0.7272651203454288  0.5451663156273980
  0.8511723305448555  0.7576356505726736  0.1992163001170653
  0.7720316938382865  0.7783365337530128  0.8884898874878004
  0.2655492116995006  0.5718968696438083  0.5460090580358283
  0.2071409849583858  0.6177719214930946  0.2267758908253512
  0.1537427006247682  0.6540788666335331  0.8945226634302514
  0.0658112758980920  0.7301286818867254  0.5475365788049587
  0.0039119957872202  0.7564732981108904  0.2169443982782369
  0.9218360870844649  0.7844295204608613  0.8942734474380742
  0.8567587369124965  0.8428966843337662  0.5443400975000046
  0.3511847102765202  0.6205522963218471  0.2334085567236741
  0.3030621897706212  0.6399542048637912  0.8899781283893446
  0.2204055239781653  0.7151462695293844  0.5631471054544335
  0.1465928414652211  0.7387151726525687  0.2271414827880562
  0.0813303566236101  0.7747177462515751  0.8983660081378346
  0.0031876740501176  0.8452601994205438  0.5623869373540984
  0.9407934417750425  0.8800288139123538  0.2327536256823990
  0.4464944725843552  0.6582675123395276  0.8933343910551770
  0.3504286830982437  0.7143030742412861  0.5540687943374820
  0.2779654526627198  0.7503775669714940  0.2239637542710042
  0.2194155937311777  0.7817406655117054  0.8852987326810720
  0.1418953602289221  0.8535643776657125  0.5515772158834906
  0.0818027276060036  0.8648261653235920  0.2211550023661744
  0.0229964827558504  0.9037466084090511  0.8906812650999356
  0.9221469804497460  0.9420778700839207  0.5491734259273926
  0.8624492763042610  0.9889794543741459  0.2291415611322307
  0.8036715711850562  0.0392940235484787  0.8977715959342518
  0.7166414580204759  0.0896060115467421  0.5480268272193953
  0.6502182006667425  0.1368579410860491  0.2195709248009123
  0.5793551462897142  0.1726337824818884  0.8858335793098888
  0.4952197289740141  0.2113653206555242  0.5369475392909635
  0.0807052536602058  0.9530302581429240  0.5555055187358064
  0.1443642242308414  0.9940682124235067  0.2263114833088409
  0.2205426244887505  0.0393525132873691  0.8875970048070698
  0.2845233292437541  0.0937756723344592  0.5696014029494521
  0.3538280097239195  0.1168534513070085  0.2293172554178611
  0.4291267333041446  0.1812671685600193  0.8807034967315062
  0.8529761497247463  0.9104188770828614  0.8950396901555777
  0.7771625789486265  0.9540915113791968  0.5580076926734634
  0.7157285298876914  0.9984795559152317  0.2117172988920899
  0.6504570394293410  0.0446353214336739  0.8900860540574840
  0.5718458767903130  0.1099077962307149  0.5571033590631274
  0.5052368958204880  0.1303836967941763  0.2150682984596060
  0.1451376275368474  0.8993285996171849  0.8866185290767845
  0.2294552518004309  0.9736775317931219  0.5514250330019195
  0.2791445967912125  0.9906194014105196  0.2219022228461611
  0.3601326862035066  0.0408713120798794  0.8972312593260128
  0.4403811828223070  0.0792177563423664  0.5520194071655453
  0.7863944631962738  0.8817017907364004  0.2237881682180785
  0.7225979375374649  0.9274901952916750  0.8874053545753213
  0.6379115554933037  0.9540198369930408  0.5768637567617105
  0.5612157854309601  0.9993286551306610  0.2103937062002856
  0.5100002942307711  0.0621519381492845  0.8932236449967306
  0.2093158612843737  0.8833281316282822  0.2157635536555702
  0.2915481608932566  0.9161482209304310  0.8923314805464173
  0.3646516378010674  0.9852036271224094  0.5411539186805570