Li 
 1.0000000000000000
   -10.5278949999999991   18.2348490367503473   -0.0000000000000021
   -18.0478199999999980  -10.4199137352859115    0.0000000000000046
    -0.0000000000000002   -0.0000000000000000   22.0820499999999988
 Li 
 504
Cartesian
 -0.1556922800000000  0.2633384700000000  0.1219126400000000
 -10.4045287500000008 16.3057245500000008 14.6685745099999991
 -10.2981592400000004 14.8448188400000003  7.0725169299999999
 -10.1299783300000001 13.2082728599999992 -0.0304255500000000
 -10.7375047600000002 11.4022233400000008 15.0129175000000004
 -10.4191141500000004  9.6774650199999996  7.0982548899999998
 -10.3128687100000000  7.8725959899999998 -0.3865271900000000
 -10.2863178499999997  6.0020058499999998 14.3200361199999993
 -10.4914474799999997  4.7183709599999997  7.3837003899999996
 -10.5295971099999992  2.6815174399999999  0.0556330900000000
 -10.2058842300000006  0.8797224400000000 15.0888879100000004
 -10.4183935000000005 -0.9199529600000000  7.3031321199999999
 -1.6541484200000001  0.7510995900000000 15.0637121999999994
 -1.5111702700000000 -1.0331068400000001  7.4884561600000001
 -11.8879638500000002 15.4279168900000005 -0.1375229600000000
 -11.7241056799999992 13.9346410100000000 14.5834232700000008
 -11.9737801499999996 12.0395586500000000  7.3041482599999998
 -12.1693011799999997 10.4138792400000000 -0.2154400900000000
 -12.1463692999999999  8.9827532199999993 14.8701290299999993
 -12.1281519200000005  7.3596151399999998  7.3907503900000000
 -12.0967445999999992  5.2340206000000000 -0.0643013500000000
 -11.9867605400000006  3.5548302999999999 14.6442077699999995
 -11.8505054600000008  1.6975571100000000  7.4396965499999999
 -12.0153822100000003  0.1879000100000000 -0.2373306300000000
 -2.9045914300000000  1.3669089600000000  7.4967902999999998
 -2.8547232800000000 -0.0130256400000000 -0.0113772000000000
 -3.1613063000000001 -1.7756296100000000 14.9758031999999996
 -13.6414097800000000 14.6084042499999995  7.2694974900000000
 -13.8308846200000009 13.0027294999999992  0.0520273100000000
 -13.6395537299999994 11.3749156899999999 14.6957151699999997
 -13.5477296000000003  9.6875930599999993  7.5891441100000003
 -13.5320137900000006  7.7802442500000000 -0.1547857800000000
 -13.3274769600000003  6.1589699900000001 14.6964151399999992
 -13.4538493599999995  4.5641469700000004  7.3336384600000004
 -13.5979870300000005  2.7384813100000001 -0.1856398400000000
 -13.4581114999999993  1.0181336999999999 14.3587414700000000
 -4.4075007800000003  2.5930484499999999 -0.0182643200000000
 -4.5451680000000003  0.8396843899999999 15.1809737400000007
 -4.3835782099999996 -0.8189373300000000  7.5110089400000000
 -4.5404255600000001 -2.6371020700000001 -0.0743634000000000
 -15.0569617699999991 13.8606833399999996 14.8596775500000007
 -15.1048539599999998 11.8541732300000007  7.3287135599999997
 -15.1232550099999994 10.3129600999999997  0.0321758500000000
 -14.9343492599999994  8.8269421700000006 14.9134272600000006
 -14.9738850800000005  7.3273797500000004  7.6459951300000002
 -14.8441513700000005  5.1564845200000002 -0.2163451600000000
 -14.8479304400000007  3.7471477700000002 14.7987881600000009
 -14.7025951999999993  1.8770164000000000  7.4257869100000002
 -6.1559597100000003  3.5316649700000000 14.8789283599999997
 -5.8558894400000003  1.7341684500000001  7.4118530600000003
 -6.0500001799999996 -0.0979925000000000 -0.0818659000000000
 -5.9826694600000003 -2.0917523999999998 14.7221593500000001
 -16.4328522200000009 14.7645878400000008  7.3540451400000002
 -16.6641057299999993 12.8812681900000001 -0.2458264500000000
 -16.3544092899999995 11.4452729299999998 14.7112152500000004
 -16.7174228099999986  9.4290436000000000  7.7910357599999998
 -16.6215079400000008  7.7113667299999999 -0.0008781100000000
 -16.5255105899999997  6.0765901099999997 14.5863598600000000
 -16.4933384200000006  4.4974698100000001  7.5746806800000002
 -16.4340345799999987  2.5485766000000001  0.0471316000000000
 -7.5751652900000002  4.0248391600000000  7.4316540199999999
 -7.4803577199999998  2.4994049999999999 -0.0184707900000000
 -7.6651567800000002  0.8677315700000000 14.7308026900000009
 -7.4661787300000002 -0.5594190999999999  7.3601881499999999
 -7.3824683599999998 -2.7600052200000000  0.0563770300000000
 -18.2409598399999986 14.0296454199999996 14.8946908899999997
 -18.3392109599999991 11.8840655500000008  7.3680745999999999
 -18.2416965799999993 10.1934176200000000  0.1793218700000000
 -18.1713503199999984  8.7630407399999992 14.7411243200000008
 -18.1771820099999992  6.7285419700000002  7.5474163399999998
 -17.9910227999999996  4.9238750400000004  0.0725676300000000
 -18.0740756900000008  3.5556412200000000 14.5369078799999993
 -8.9887048600000004  5.4134813599999996  0.2012889600000000
 -9.1407242600000007  3.4769697900000001 14.6134666000000006
 -8.7778629099999996  1.7203804700000001  7.4670963099999996
 -8.7101774800000005 -0.0817327200000000  0.1309097100000000
 -8.8922338300000003 -1.7005809999999999 14.7046089799999997
 -8.8936924899999994 -3.5593723000000002  7.3447962599999999
 -19.5270704899999998 12.9678934199999993  0.2405478700000000
 -19.9190879999999986 11.1032721700000003 14.8924991599999998
 -19.6390212099999992  9.3895292999999995  7.3162596899999999
 -19.5109012899999996  7.4261577499999998  0.1221730600000000
 -19.8242136000000002  6.2228797599999996 14.3819100500000001
 -19.3649691100000005  4.3673991299999999  7.2953856999999998
 -10.5593425900000000 -2.6771116199999998  0.3302634200000000
 -10.5478945599999996 -4.2990981100000001 14.9419929000000007
 -21.0435667799999990 12.2095624600000008  7.3334966899999996
 -20.8057636600000002 10.2771381500000007  0.1945248500000000
 -21.1056099000000010  8.6411770400000005 14.5202540399999993
 -21.2346092999999989  6.7263834100000004  7.5203066700000001
 -20.9870276300000000  4.6366894299999997 -0.0776878900000000
 -11.9046993899999993 -1.6201336900000001 15.0413443600000001
 -11.8964517000000001 -3.7577757699999998  7.3324664000000004
 -11.8822258699999992 -5.4167982400000003  0.4310223600000000
 -22.9059764399999999 11.2540910499999995 14.6923544199999991
 -22.6498055799999989  9.3633664900000007  7.1240195200000000
 -22.6426362099999992  7.7687635200000003 -0.2127102100000000
 -22.6234144499999985  6.1088549700000003 14.6459545900000006
 -13.2846023100000004 -1.0614554400000000  6.9927429999999999
 -13.1466589900000006 -2.7354984199999999 -0.0442302700000000
 -13.7747060000000001 -4.0775159800000003 14.9335067099999996
 -13.5518415500000007 -6.1431349600000003  7.5679514200000000
 -24.0489463800000003 10.6064428500000005 -0.1730785800000000
 -24.1818204799999990  8.7441962100000001 14.3848961099999997
 -24.1533398300000002  7.1706429399999996  6.9646000199999998
 -14.9621580999999999  0.2277849500000000 -0.0844333600000000
 -14.7272838099999994 -1.6133462800000000 14.7339808500000000
 -14.6874934300000000 -3.4671332900000000  7.8525670800000000
 -14.8387403599999992 -5.0225975199999997 -0.0294334400000000
 -15.2244483099999997 -6.9234042699999998 14.9507770099999995
 -25.5929767699999999  9.6003047600000002  7.4171021200000000
 -25.5203906399999987  7.8338591900000001 -0.0268094200000000
 -16.5828742899999995  1.0994106500000000 14.4393859800000008
 -16.3159490699999985 -1.0447400700000000  7.4083213900000002
 -16.4199625699999991 -2.2053438200000000  0.2165143600000000
 -16.8975698299999983 -4.2636209699999998 14.7981476099999991
 -16.5649778400000010 -6.1289469299999997  7.4793107900000004
 -16.3941334699999999 -7.7910543199999998 -0.0297377400000000
 -27.1988505399999987  8.8151749600000002 14.8764304200000002
 -26.9942042300000011  6.9260513599999998  7.2402024400000000
 -8.8496645399999991 16.1115730799999994 -0.0848925300000000
 -9.2260502599999992 13.8817567400000001 14.7156682900000000
 -9.0342434100000002 12.2668945699999998  7.1382715399999999
 -8.9868748699999994 10.3817954300000004 -0.1464702900000000
 -9.3715357200000007  8.5922813799999993 14.6924045599999999
 -8.9562737600000002  7.0466217000000002  7.2537910600000002
 -18.0777434499999998 -8.8725180199999993  7.0748551600000003
 -1.2927844100000001  2.8163630600000000 -0.0749114400000000
 -3.3084050399999998  3.5849984400000001 14.6760342799999997
 -4.3538640700000002  4.1933712800000000  7.2604003900000000
 -5.9106971599999998  5.1903544400000001  0.0349960300000000
 -7.7166751400000004  6.2680058599999997 14.5956594600000003
 -25.7251467600000012  6.2485284800000001 14.6939638800000001
 -25.3139475400000009  4.4086044199999996  7.3903146900000003
 -7.2429484100000003 12.9690068699999994  0.1147981800000000
 -7.6143785399999997 11.3391388800000001 14.6023730999999994
 -7.5673404499999997  9.5744517400000007  7.1105583299999999
 -7.1529104800000001  7.8320771899999997 -0.1893421900000000
 -18.0310958799999987 -7.0217744000000000 14.7706899699999994
 -19.6363226799999993 -6.3645190200000004  7.4016777100000004
 -3.0233664500000001  5.3043922300000004  0.0593901600000000
 -4.5907919399999999  6.1301930499999999 14.5526609100000002
 -6.2068137600000002  6.8162380200000001  7.5462156599999997
 -23.9096083600000000  5.2141594600000003 -0.1187834800000000
 -24.1941123199999986  3.3414488000000002 15.0256799200000000
 -23.8625715199999995  1.9098968199999999  7.1588514500000002
 -6.3021507500000000 10.6996181900000007  0.0472533500000000
 -6.2120567700000002  8.6141466300000005 14.7945264000000005
 -17.9374283599999984 -5.0626546299999999 -0.1659326400000000
 -19.8874551400000001 -4.2284041500000003 14.7097741800000001
 -20.8104847900000003 -3.3658410600000002  7.4372213699999996
 -4.5111730400000001  7.9229072199999999 -0.0696242500000000
 -22.3199019800000009  4.3099301099999998  7.1430597499999999
 -22.3510679400000001  2.6595799900000001 -0.0391490200000000
 -22.5151449300000017  1.0283862600000000 14.9624370899999999
 -22.6482143600000008 -0.7472797700000000  7.1163293000000003
 -17.7533987000000018 -3.5056808099999999  7.3256259100000003
 -19.1142251300000012 -2.6746515700000000  0.0326193600000000
 -21.1511725000000013 -1.7774162700000000 14.3241338000000002
 -21.2294783400000000  3.5140262199999999 14.8457105899999995
 -20.9004908000000000  1.7627615800000001  7.1558516100000000
 -21.1816551100000012 -0.2815785400000000 -0.1192647900000000
 -18.0084869099999985 -1.6619601799999999 14.1747561100000006
 -19.6096027500000005 -0.6356621700000000  7.3154939800000003
 -19.4891179799999996  2.1847597400000001 -0.1891612400000000
 -19.5129625699999991  0.6928139100000000 14.7721693599999995
 -17.8332540600000016 -0.1441743600000000  0.3488280500000000
 -17.7609710700000001  1.6966488700000000  7.3112944300000002
  0.0681517500000000 -0.0735015900000000 17.4076514700000011
 -10.5464882899999992 16.5264710800000003  9.6576074500000004
 -10.5515501700000005 14.8022349799999997  2.5446708800000000
 -10.3474864699999998 13.3019469200000007 17.2426332500000008
 -10.6107941599999993 11.3026847799999999 10.0427974100000004
 -10.5444938599999993  9.7875140500000004  2.1160622199999999
 -10.6507079900000008  7.8794607000000001 16.8254827700000007
 -10.5658765799999994  5.9758816299999999  9.6637001199999997
 -10.6886047899999994  4.2081503199999997  2.8130123800000000
 -10.7118348099999992  2.6835453000000000 17.3175253900000001
 -10.4254907400000008  0.8180290700000000  9.5861108399999999
 -10.3842057899999993 -1.1058440700000001  2.5291627000000001
 -1.2702737500000001  0.8885629200000000  9.8199706500000001
 -1.5469428199999999 -1.1000675400000000  2.5675629799999999
 -11.7442296099999997 15.7130391700000001 17.2429473900000012
 -12.0373591500000003 14.1130487700000007  9.5684843199999996
 -11.8701626699999991 12.0743585800000002  2.4954278500000000
 -12.0990453000000002 10.5752056000000003 17.4147785100000014
 -12.0059259800000007  8.7173094300000002 10.0166788199999992
 -11.8515498499999996  6.9839979200000002  2.2095560500000002
 -11.7968752699999992  5.2919309099999996 17.0724917100000013
 -11.8343053900000008  3.3504567500000002  9.5306993999999996
 -11.9114038900000008  1.5607803400000000  2.2369892400000002
 -12.2506992700000001 -0.1048755800000000 17.0736212899999984
 -2.9177399799999999  1.8748148200000001  2.3294591699999998
 -2.7935673799999998  0.2431048000000000 17.4904541500000015
 -3.0094088600000002 -1.9237799000000000 10.0301115299999992
 -13.5618107699999992 14.4690533299999995  2.4013144500000001
 -13.3804839199999996 13.1577843899999998 16.9759269099999983
 -13.5727293899999992 11.1580030299999997  9.8537830999999994
 -13.5646666499999995  9.4500887099999993  2.4318750400000000
 -13.6819234099999996  7.9443061600000000 17.5826421000000011
 -13.3674108799999996  5.9947495100000001 10.2146407900000007
 -13.6834528399999993  4.5611053500000001  2.5276268700000002
 -13.0210391199999993  2.6849420400000001 16.7346588099999991
 -13.2649094999999999  0.7080285900000000  9.7432358200000007
 -4.5590791499999996  2.7551156699999999 17.5661109499999988
 -4.2505713299999996  0.5066251100000000  9.9821258499999992
 -4.4175494700000000 -1.0369210700000000  2.5364179700000000
 -15.1908860800000003 15.7182037599999997 17.1912378399999994
 -15.0073131100000001 13.8292669700000008  9.6847759300000007
 -14.9025180600000002 11.6794960099999994  2.5234383800000000
 -15.1074599999999997 10.5845724699999995 17.5539193800000000
 -15.0252802200000009  8.5314001299999997 10.1419439400000009
 -15.0985062600000006  7.1996711600000003  2.2343773599999999
 -14.9501456600000004  5.4373770199999996 16.8578325900000010
 -14.7508315200000002  3.4376237100000000  9.6606823599999991
 -14.8176535800000000  1.7101165199999999  2.5349708199999998
 -6.1660752900000002  3.1410307199999998  9.9694653199999994
 -5.7466124499999998  1.7047118400000001  2.4367587899999998
 -5.9491323899999999  0.1844055800000000 16.9812664899999994
 -6.2784281899999996 -1.8535844900000000  9.8448402399999999
 -16.5331645000000016 14.5276355000000006  2.3249229699999998
 -16.6422913500000007 13.1182832400000002 17.2651360599999997
 -16.5963436199999990 11.2910660400000005  9.9035656099999994
 -16.8671317099999989  9.3859139299999992  2.6055957200000002
 -16.8393119599999999  7.8529537899999999 17.5439717299999991
 -16.5084753400000004  6.0877710799999996  9.9074076299999998
 -16.4852036499999990  4.2578065699999996  2.4899032900000000
 -16.3083838099999987  2.9374109499999999 17.0175615600000008
 -7.8337975899999996  4.3166262599999996  2.6118505000000001
 -7.5963562299999996  2.8895023300000000 17.2510019499999991
 -7.4368086699999996  1.0542826400000000 10.0169732600000003
 -7.1861018200000002 -0.8125617500000000  2.6417096400000002
 -7.5013394099999999 -2.3740959400000001 17.4327350299999999
 -18.2162151600000009 13.6636027700000007  9.9129872799999994
 -17.9598190399999993 11.7963915499999992  2.2638915100000001
 -18.1198890699999993 10.5345004600000003 17.3566258399999995
 -18.2295527499999999  8.2690345700000005  9.7618592700000004
 -18.0285464600000012  7.0636495000000004  2.4088086000000000
 -17.9840879999999999  5.1728817999999999 16.9716215599999991
 -17.9052290099999993  3.6266082900000001  9.7680713600000004
 -8.8795099400000002  5.4453889699999998 16.9834995800000002
 -9.2611395400000003  3.3760901900000002  9.7770600999999999
 -9.0030226500000001  1.6895914599999999  2.6958481500000002
 -8.9924295700000005 -0.0738696100000000 17.6404341299999992
 -8.9597607400000001 -2.0048492000000002  9.5845718400000006
 -9.0010351499999999 -3.4619184600000001  2.4579638300000002
 -19.6845698400000018 13.0553850400000009 17.4278554099999994
 -19.5874869499999988 11.0556507499999999  9.9023438099999996
 -19.8548027500000011  9.3127173100000000  2.3269328599999999
 -19.7734619199999990  8.0569787000000002 17.1312157300000010
 -19.9559804499999984  6.0362640599999997 10.0810543799999994
 -19.6777632500000017  4.2652281600000004  2.4680789900000000
 -10.5387099099999997 -2.6228689400000000 17.4551302600000007
 -10.3978226399999993 -4.8534710099999998  9.7192209199999997
 -20.9706082800000004 12.0142729300000006  2.6574155199999998
 -21.3781465200000014 10.7323234000000003 17.1995703000000013
 -20.9982137699999996  8.9036836899999994  9.7346844600000004
 -21.1293601399999993  6.5751169200000001  2.0213606099999999
 -20.8683841399999999  5.5563741300000000 17.2024359800000006
 -11.8640702000000005 -1.9606580700000000  9.5202370999999992
 -11.9088506400000007 -3.5644894400000000  2.8091043299999998
 -12.0753714399999996 -5.5412170600000001 16.9990396699999984
 -22.6762674000000004 11.1960153800000004  9.6950798700000007
 -22.5602930499999985  9.4750126100000003  2.3287404000000000
 -22.6258267800000006  8.1439785199999992 16.7802297200000012
 -22.6746665199999988  5.9235760099999997  9.7730947100000005
 -13.5216286100000005 -0.7597329600000000  2.4017344500000002
 -13.5426888299999995 -2.6967585900000000 17.3776863000000006
 -13.2917877200000003 -4.4925907399999998  9.9475004299999998
 -13.5776776699999999 -5.9736543700000002  2.5583205100000002
 -24.6026335399999994 10.2864966899999999 17.4178136700000010
 -24.1709014199999999  8.5050534399999993  9.8805178900000001
 -24.2663166100000005  6.9532959800000000  2.5515477000000000
 -14.9678912999999998  0.0814920500000000 17.0368103600000005
 -14.8520553599999996 -1.8855303100000000  9.7822482199999996
 -14.7830717099999998 -3.2699057800000002  2.6031291099999998
 -15.2090615000000007 -4.9980861599999997 17.2349418000000014
 -14.7815365900000000 -6.8834346599999998  9.6694708899999995
 -25.5272198900000014  9.6500707200000004  2.4483596300000001
 -25.5578329500000017  7.8558113299999999 17.0920917199999991
 -16.2532520200000015  0.9143050900000000  9.5861539800000006
 -16.4470026699999998 -0.7949721600000000  2.3372831199999999
 -16.4234594300000012 -2.3307978700000000 17.0253697600000002
 -16.6028501599999991 -4.2829983599999997  9.9034711600000005
 -16.3633591400000000 -5.6731620899999999  2.3633111699999998
 -16.7279079400000015 -7.5536637700000000 17.3240663999999995
 -26.9402570700000012  8.4693716699999992  9.6843486100000007
 -27.1995693299999992  6.9038937200000001  2.6943931000000001
 -8.8053672200000008 15.8069871699999993 16.9264907300000012
 -8.9375427100000007 13.8077216400000005  9.4954728999999993
 -8.8167205299999996 12.2901814700000003  2.5905181000000002
 -8.9727640599999994 10.6429675800000005 17.1659515999999996
 -8.9131297899999993  8.6579067700000003  9.7235848499999999
 -9.0405086699999995  7.0092207899999996  2.2877388100000000
 -17.6947841799999992 -8.5263536900000005  2.5344754200000001
 -1.6698444400000001  3.0390350800000001 17.0247926999999990
 -2.8590291600000000  3.2932186300000001 10.1921202100000006
 -4.3023350000000002  4.3892775000000004  2.5244271199999999
 -6.1867387799999998  5.2438061400000002 17.0848113800000014
 -7.4372301800000002  5.8809591899999996  9.7553931800000004
 -25.6043137499999993  5.7285556800000004  9.7801452599999994
 -25.7228635099999998  4.2837934999999998  2.1983445900000000
 -7.4880487000000002 12.9256209299999991 17.2499933600000013
 -7.4038557200000001 11.1978375400000001  9.9195975300000008
 -7.8561588300000000  9.1853343200000008  2.1136883200000001
 -7.5421821099999997  7.8182485799999997 17.1976228099999986
 -18.1203484999999986 -7.0324612499999999  9.6207402200000001
 -19.3128350500000003 -5.8046040200000002  2.4195055800000000
 -3.1087469099999998  5.3998631699999997 17.1436372500000012
 -4.3782697900000001  5.8187688000000000  9.4235204600000007
 -6.3314571900000001  6.7537138399999996  2.5096830600000000
 -23.8697206100000017  5.3284643000000003 17.3866629300000000
 -23.7861253700000006  3.1121765400000001 10.0450806799999999
 -24.0340821499999997  1.5156143799999999  2.3684430299999999
 -24.1700148199999987  0.0710523300000000 17.2505340099999991
 -5.9762975799999998  8.5672461200000001  9.5881177599999994
 -18.4041823099999995 -4.7384272200000002 16.9901747800000003
 -19.5327180700000014 -4.3550370300000001  9.6280966800000005
 -21.2657729099999990 -3.3421751300000002  2.2020903600000001
 -22.7722833400000013 -2.5071863400000001 17.4507294000000002
 -22.7352806100000002  4.1735470299999999  2.4443108400000000
 -22.4320103400000015  2.5552001400000002 17.6329969099999992
 -22.3921372299999994  0.7310143400000000  9.6120233400000004
 -22.8751127399999987 -1.1077582300000000  2.2826709799999998
 -17.9067141099999994 -3.2774696200000002  2.4689772900000002
 -19.6361786100000018 -2.2816094599999999 17.0462547300000011
 -20.9641184799999998 -1.6001801800000000  9.6513208299999995
 -21.0255762500000003  3.4072481099999998  9.9356765700000000
 -21.0800966299999999  1.6655623799999999  2.2914085200000001
 -20.9622252600000003  0.0864279600000000 17.4072989500000013
 -18.0048116699999987 -1.7618392100000000  9.6923675599999992
 -19.5690399299999989 -0.9766141200000000  2.2480423900000002
 -19.3318473799999992  2.5970502700000000 17.1127899100000000
 -19.4590097899999996  1.0669439700000001  9.9435875599999992
 -17.6363728100000010 -0.0143797400000000 17.0910655300000016
 -17.9758671099999994  1.6224962300000001  2.4037835099999998
 -0.3103469200000000 -0.2245558200000000  4.7707241800000002
 -10.5632447099999993 16.6592422300000003 19.8097782299999992
 -10.3729247900000008 14.9200724900000008 11.9017408800000002
 -10.7243931700000008 13.0116639500000009  4.5677169400000004
 -10.5011280399999993 11.4985543700000008 19.7461674699999996
 -10.7572700000000001  9.8074515499999997 12.3586866600000000
 -10.8279549900000003  7.7280544300000003  4.6817545500000000
 -10.5282141899999999  6.0335554399999998 19.5206751199999999
 -10.6239815300000000  4.4605708999999996 12.1858330499999994
 -10.4917656899999994  2.5562429400000002  5.1507134800000003
 -10.4212432400000008  0.9083849800000000 19.5410403099999996
 -10.3302906199999995 -0.9431653100000000 12.2317796500000000
 -1.3405193900000001  1.3517122300000000 19.6083856599999997
 -1.4379274700000000 -0.7379980500000000 12.5813895099999993
 -12.1981081400000004 15.5431399799999994  4.9375674199999997
 -12.0589611600000008 13.9859748499999998 19.6237241199999985
 -12.0109702200000008 12.3165732299999995 11.8049723300000000
 -12.1730619999999998 10.5552730100000005  4.9757041500000003
 -12.1607510800000007  8.4662357200000002 19.5269943599999998
 -11.9302072700000004  7.0366042899999997 12.2737448800000006
 -11.9520855000000008  5.2199932499999999  4.6999273800000001
 -12.2740823599999995  3.6359181000000000 19.7334443800000017
 -11.7524459900000000  1.6584485499999999 12.3761698399999993
 -11.8309355200000006  0.2212404900000000  4.6920311899999998
 -3.0283167400000002  1.7444593200000000 12.4845009400000002
 -3.0822908600000001 -0.0826615600000000  5.0238232099999998
 -13.2821478800000001 16.6509624900000013 19.5858371399999989
 -13.5050501000000001 15.0933340400000002 12.4466669000000003
 -13.8252534699999998 12.8818020400000002  5.2403120100000002
 -13.6345294100000007 11.3499041500000004 19.6343321599999996
 -13.8067845499999997  9.5046489500000000 12.2925608700000009
 -13.7814907000000009  7.5856846100000004  4.9713056000000000
 -13.6914941599999995  5.7812634599999999 19.7337736499999998
 -13.5619346099999998  4.1843100800000004 12.1451629600000004
 -13.3989136599999998  2.7292002000000002  4.6922809499999998
 -13.3118905000000005  1.1123890400000001 19.5891202799999995
 -4.4738483799999997  2.4523736199999999  4.9202949299999998
 -4.4104152299999999  0.9735573300000000 19.3368358499999999
 -4.4610555700000001 -0.9317589300000000 12.5868892300000006
 -4.7650768399999999 -2.6722173300000001  4.5394035900000000
 -14.9564029299999994 13.7445117000000003 19.4939290300000003
 -15.1158211399999995 12.1810889400000004 12.1900632099999999
 -15.5141331999999998 10.4373571300000005  5.0354263200000000
 -15.0791222200000004  8.5190007800000007 19.6952184499999987
 -14.9996508100000003  6.9964913900000001 12.7016601599999994
 -15.0843270199999999  5.2611749799999998  5.1904304400000001
 -15.0200157900000004  3.5735985299999999 19.3758071399999992
 -14.7926993899999992  1.4043497800000000 12.1872872200000000
 -6.4884560899999997  3.3958269200000002 19.7194022599999990
 -5.9064480699999997  1.5475299100000000 12.3828437800000000
 -5.9862060200000000 -0.1385852900000000  4.9830405000000004
 -6.0659469799999997 -1.8084054700000001 19.7963168500000002
 -16.4532236400000009 14.5217989200000002 12.3909930399999997
 -16.9318845399999987 12.7448402299999994  4.7502712799999998
 -16.8213981500000003 11.1339982600000003 19.8876554600000013
 -16.3349478599999998  9.6874933500000004 12.4902820800000001
 -16.9305482400000002  7.6613249999999997  5.2283232799999997
 -16.7539761100000000  6.0566940499999999 19.3776818400000010
 -16.7500105400000017  4.0542737799999999 12.2866540700000009
 -16.5711201300000006  2.6747821699999998  5.1333928799999997
 -7.4613087199999999  4.2986099299999996 12.2985183300000003
 -7.4364075100000004  2.4640203100000000  4.8269957799999998
 -7.3190262900000000  1.0939541500000001 19.4820606500000011
 -7.1058436000000000 -1.1536972800000000 12.2549184899999997
 -7.7128542199999996 -2.5400864400000001  4.9641112600000001
 -17.9928728800000002 13.9867770199999999 19.7226795099999990
 -18.5321307900000001 12.1983739799999995 12.4041828600000006
 -18.2104251300000008 10.2735678099999994  4.6895928700000002
 -18.1882569099999998  8.6821826299999998 19.9342443100000004
 -17.9641695900000009  6.9165929000000004 12.3988695500000006
 -18.1187548099999987  4.8188800199999999  4.6969686599999996
 -17.9972121200000004  3.8139958300000001 19.4522450499999984
 -9.0778796600000007  5.1061308600000004  4.6806500199999999
 -9.3343925999999993  3.3361824400000000 19.4590430800000007
 -8.8298195400000008  1.7149733000000000 12.3007152299999998
 -9.0216785700000006  0.2066291600000000  4.7960794800000004
 -9.1485090400000004 -1.6056671000000000 20.2432658100000005
 -9.2531184900000003 -3.6389007300000000 12.1029230600000002
 -19.5446491299999998 12.8857329899999993  4.9200978900000001
 -19.6112833500000008 11.4003329999999998 19.8330959799999995
 -19.3400969899999993  9.2230725400000004 12.2720582100000009
 -19.5420062500000000  7.5434428699999998  5.0431959500000003
 -19.5063940799999997  5.9257126500000004 19.4010100799999989
 -19.5756152300000004  4.4036065799999999 12.4314217199999995
 -10.5097380600000001 -2.7724149300000001  5.1522066500000001
 -10.5932320299999994 -4.2283721800000000 20.0243314000000012
 -21.3215257399999985 11.6747200400000004 12.4130036399999995
 -21.0953757099999990 10.1906719300000006  4.9018699300000002
 -21.2394475400000005  8.7181299200000009 19.5526771799999999
 -21.0415190000000010  7.1519261099999998 12.3784717499999992
 -21.1297921399999993  5.2102439800000004  4.6450308700000003
 -11.7451585099999996 -1.6823894300000000 19.6911901000000000
 -12.0762382600000002 -3.7159030300000002 12.3526971600000000
 -11.6756193899999996 -5.4739483399999997  4.9256352799999998
 -22.7541007899999990 11.6065646999999998 19.7931615500000007
 -22.9593313099999996  9.4545690699999998 12.0383898400000007
 -22.6347247699999983  7.6265008300000003  4.3991043000000003
 -22.1751462699999990  5.9676818500000000 19.6196781199999997
 -13.1171659799999993 -1.1168662600000001 12.0569993199999992
 -13.3301949799999999 -2.6599455399999998  5.0076765600000002
 -13.4232846600000002 -4.0119704299999999 19.7528941799999984
 -13.8700852300000008 -6.4078191999999996 12.0907301100000009
 -24.2217739999999999 10.4237971799999993  4.7905770499999996
 -23.8622363200000009  8.6358539499999996 19.7473909799999987
 -24.2323136599999991  6.8399554900000004 12.0201452500000006
 -14.8968518999999997 -0.0623012200000000  5.1541394199999999
 -14.7403852099999995 -1.1419743300000000 19.6525415300000006
 -15.2272373600000002 -3.4327009799999999 12.4354425400000004
 -14.8755125100000001 -5.0242500400000001  5.0157495799999996
 -14.8382038900000008 -6.5894453100000003 19.8377631100000009
 -25.8165584300000006  9.4854374299999993 12.4186564700000002
 -25.7871762000000011  7.9854020600000002  5.1396772000000004
 -16.5809405000000005  1.2826686100000000 19.7266546900000002
 -16.5808896899999993 -1.0529622800000000 12.2349748199999997
 -16.4690703599999999 -2.7502114500000001  4.9455788199999997
 -16.4186991499999984 -4.1446600699999996 19.5492108800000004
 -16.8988356999999993 -6.3066267099999997 12.1799556599999992
 -16.4694374900000007 -7.5197536500000002  4.8835558199999998
 -27.0806556699999987  9.2372247299999994 19.6680682299999994
 -26.7107184099999984  6.9988408399999997 12.1268750500000007
 -8.8808786000000008 15.8414654899999991  5.0599154100000003
 -9.1701413800000005 14.2453894400000003 19.8246372700000002
 -9.1619191900000008 12.1341618899999997 12.1015557999999999
 -9.3154164300000009 10.4305827900000008  4.8485761399999996
 -9.2150535799999993  8.7656245100000003 19.5610213900000005
 -9.0283045699999995  6.8278485900000003 11.8569024100000000
 -18.0497749899999995 -8.4588449600000004 12.2667006399999998
 -1.4127955600000000  2.6942685499999999  4.9974214899999998
 -3.0320766699999999  3.6115116700000001 19.5999614400000013
 -4.6878781900000002  4.2111055400000001 12.5779666599999995
 -5.8340141900000004  5.2343974600000003  5.0637951000000001
 -7.7892784199999996  5.9362729400000003 19.4477386500000016
 -25.4111193600000007  6.0674051599999999 19.7643111900000008
 -25.4011578900000004  4.2298910599999999 12.3219537700000004
 -7.5076741100000000 13.0670445900000001  4.6751519799999999
 -7.6535136599999998 11.3958897199999996 19.6549247499999993
 -8.0039294699999992  9.2822934799999999 12.3019842300000004
 -7.6722224800000003  7.8543316499999998  4.7491489199999997
 -17.7589143900000010 -6.7243636999999996 19.5783546900000012
 -19.9884376300000000 -5.9615540100000004 12.1765951500000007
 -2.7695056500000002  5.1879046100000004  4.9000559800000003
 -4.5290771899999998  6.1410896199999998 19.8127055299999988
 -6.0659946600000003  7.2048421999999999 12.1897201499999994
 -24.1918735500000004  5.1525277200000001  4.9417015199999996
 -24.3466113100000001  3.5120964799999999 19.5957294100000006