Li                                      
   1.00000000000000     
    21.0004999999999988    0.0000000000000000    0.0000000000000000
     0.0000000000000000   21.0004999999999988    0.0000000000000000
     0.0000000000000000    0.0000000000000000   21.0004999999999988
   Li
   500
Direct
  0.9998377829099283  0.9898962867550765  0.0099125625580356
  0.0168427861241369  0.1351110525939845  0.0961362058046262
  0.0101500040475244  0.2027754315373471  0.2226626570795958
  0.0121165815099644  0.3411575210114037  0.3124626904121328
  0.9933571553058229  0.4159045122735208  0.3824216637699109
  0.0135804409418796  0.5229912530654062  0.4734173781576629
  0.0087778533844443  0.6150944772743472  0.6089678279088560
  0.9989668007904555  0.7096800823789877  0.7069712430656381
  0.9995841422823233  0.8045885697959605  0.8251441056165305
  0.9954164257993838  0.9005681221875648  0.9061689659770025
  0.1033270736411041  0.0024394162043748  0.0942493588247899
  0.0782151405918938  0.1042096383419420  0.2230323830385004
  0.0919221285207499  0.1952936482464693  0.3240855446298880
  0.1072243622770870  0.3236817675769643  0.3937287212209242
  0.0708402466607936  0.4357444265612713  0.5040673174448216
  0.0858898250041662  0.5124499245256047  0.6020040222851861
  0.1000124963691320  0.6030126182709949  0.6988852603509415
  0.1163449251208277  0.6792831518297149  0.8038539987143167
  0.1041228908835521  0.7686238308611735  0.8988597095307256
  0.1034608118854337  0.8792738644318021  0.9836216623413705
  0.1892999761910445  0.0139270603080845  0.2001142820409072
  0.1909529273112511  0.1025525911287843  0.2823126849360733
  0.2008557805766529  0.1950174095854891  0.4067668888835954
  0.2033617156734380  0.3145013080640950  0.5120388262184221
  0.1875301730911190  0.3927517254351116  0.6085389847860796
  0.2003645579867168  0.4857337572914915  0.6919025494631086
  0.1866015404395114  0.5972580457608174  0.8024131758767652
  0.2063683321825636  0.6771408623604174  0.9133988366943626
  0.2006167729339765  0.8051557310540218  0.9768121216161489
  0.2004595138211016  0.9013216899597651  0.0756210342610899
  0.3008838275279189  0.0129656270088816  0.2943953401109525
  0.2861854522511393  0.1021587843146605  0.3966398138139553
  0.2678077269588783  0.1880899135734850  0.4825100945215581
  0.3029289678817193  0.3003862169948306  0.6028138582414684
  0.3118299692864426  0.3896699445251315  0.7037594662031879
  0.3124135053927262  0.4983506664127049  0.8098958520035211
  0.3141066412704490  0.5914604957024849  0.9014577948144122
  0.2987350386895571  0.6944783471822120  0.9999862636603893
  0.2880973414918699  0.8010955786767013  0.0873228065998433
  0.2970415813909213  0.9022064931787313  0.1742640489512155
  0.3943416751982127  0.9970885750339278  0.4052328111235468
  0.3874638699078616  0.1005954039189518  0.5174944639413326
  0.3921467374586314  0.1843374819647181  0.5748325763672284
  0.4289989419299545  0.2775722163758019  0.6826780814742506
  0.3978675807718872  0.3677702535653893  0.7830468845979865
  0.4059482840884741  0.4782792904930844  0.8857734025380353
  0.4141472350658333  0.5792386257470028  0.0112510830694532
  0.4130748310754484  0.7080165043689419  0.1079283436108653
  0.4041629718340047  0.8030744691793075  0.1859345525106519
  0.3881291145448884  0.8881854846313217  0.2974992638270493
  0.5063838389562179  0.9959967191257348  0.5038221337587174
  0.5027001390443075  0.0554648589319271  0.5986025385109883
  0.5100557558153369  0.1915618323373280  0.6915212356848670
  0.5237105811766369  0.3112373876812455  0.7887003561819981
  0.5163270941168037  0.3830016942453724  0.8722810018809071
  0.4933412190185962  0.5015465188924040  0.9810443618009117
  0.5053371881621871  0.5735534692031123  0.1067081059974768
  0.5167763453251126  0.6986512725887479  0.1913612618747180
  0.5141489869288804  0.7932273598247690  0.2980863941334704
  0.4797840737125298  0.8839338163377093  0.4034862817551996
  0.6068395033451566  0.9870125606533193  0.6214741201399931
  0.6097842889454981  0.0997061836622919  0.7006094745363214
  0.6172279679055279  0.1969360772362592  0.7793632346848867
  0.6097537839575224  0.3383889169305476  0.8638991257351023
  0.6067298830980192  0.3943865865098459  0.0163220428085040
  0.5994307926001738  0.5070138820504297  0.1045953205876060
  0.6028021675674395  0.6069894440608579  0.2119831661150897
  0.6110224975595813  0.7064432080188539  0.2985625908906897
  0.6097134849170232  0.8265447384586082  0.4258153486821712
  0.6124757929573121  0.9136918273374448  0.4984106097473884
  0.7182814347277429  0.9890059284302737  0.7089571210209300
  0.6931526387466960  0.0817037270541192  0.8064832670650688
  0.6979469760243830  0.2061031318301971  0.9060961677102952
  0.7008273474441111  0.2891347744101296  0.0097353120163817
  0.6885698964310407  0.3971267369824503  0.1181321292350148
  0.6842167572200637  0.5064931168305549  0.2218978381467096
  0.6913347125068441  0.6122295583438486  0.3049555615342499
  0.6766803861812818  0.7054797400061901  0.4068672622080456
  0.7305102407085542  0.8058952977310057  0.4870689978810034
  0.6833474326801721  0.8817706735553941  0.6029082098045251
  0.7655086907454560  0.0073713678245753  0.8122051236875336
  0.7988838956215361  0.0977405790338324  0.9341060350944019
  0.7964931815909111  0.2072433165877001  0.0216262546129826
  0.8038572267326956  0.3003784609890232  0.1124864265136551
  0.8157161667579373  0.4137754139187138  0.2150159191447827
  0.7941321649484507  0.5300337249113127  0.3117013223494709
  0.7989175576771999  0.6387201942810918  0.3868479917144825
  0.7909630032618296  0.7237346529844544  0.4964618809075958
  0.7937711364015172  0.8068486121758980  0.6241182605176050
  0.7985269526916028  0.9047520059046192  0.6884459812861579
  0.8960015047260796  0.9850407714102047  0.8980859322397095
  0.9268545691769248  0.1206623785147940  0.0044538353848722
  0.9378782433751596  0.2125680683793263  0.1160139001452336
  0.9149990885931274  0.2936260031903970  0.2385084921787595
  0.9002119292397808  0.4057420651889245  0.3281431289731174
  0.9066812909216466  0.5393424713697286  0.4041877207685545
  0.8946583505154635  0.6130205271303097  0.4898040051427373
  0.8968406437941923  0.7067083155162948  0.6048838594319150
  0.9133795557248661  0.8167544129901643  0.7040934882502796
  0.9045921092354945  0.9081722097092921  0.8049799376205300
  0.0905981209971216  0.1207195033451569  0.0080714382990905
  0.1153372824456582  0.2145965772243486  0.1295315811528326
  0.1159448517892443  0.2796257465298453  0.2320579952858282
  0.1132361924716108  0.4123752829694496  0.3097378533844406
  0.0966832261136616  0.5281923206590307  0.3797485431299279
  0.1035796028665956  0.6445612809218844  0.5003074850598779
  0.0917692821599516  0.7102919949524988  0.6054354401085718
  0.1253991062117592  0.8148865012737758  0.7356611004499882
  0.0864764924644632  0.9078443318016269  0.8271970886407445
  0.1051255103449904  0.0116185300350011  0.9015436470560232
  0.1872917716244871  0.1006946939358571  0.1152917968619818
  0.2089656003428502  0.1721756567700794  0.2044597219113840
  0.2104182719459047  0.2975529011213993  0.3164653793957299
  0.1917010466417466  0.4179386952691573  0.3905866874598232
  0.1682235632484961  0.5114330682602812  0.4874488264565144
  0.2008734387276476  0.5765388062188990  0.5931521382824201
  0.2012035303921351  0.6792850894026330  0.7026103011833058
  0.2211590119282860  0.7664262631842078  0.8078315197257240
  0.1994750701173800  0.8841197647675045  0.8836023880383834
  0.1901744658460487  0.9968117154353493  0.9852989519297140
  0.3129306745077471  0.0802392485893222  0.1855031008785488
  0.2855569029308853  0.1856855212971098  0.2947680636175321
  0.2906103392776345  0.3091525497011958  0.3951597585771793
  0.2762977691007364  0.4168578490988324  0.5033236832456396
  0.2763994804885570  0.4749169991190669  0.5948689559772404
  0.3039688778838610  0.5895040127616014  0.7046876031523084
  0.3004247784576535  0.6854776257708153  0.7849298426227946
  0.3060415352015440  0.7868297431013573  0.8860282812313969
  0.2893941163305627  0.8802530787362173  0.9792602433275377
  0.2771604661793745  0.9865469336444335  0.0832758196233456
  0.3953468474560111  0.1088243194209682  0.2994394609652176
  0.3701571714959186  0.1868185657484318  0.3958028232661093
  0.3825000814266346  0.2945054203471358  0.4952057674817283
  0.4160917873383951  0.3896357481964685  0.5757214361562788
  0.4095449694054878  0.4764126987452713  0.6984163305635605
  0.4169499978571949  0.6093316049617883  0.7865271612580642
  0.4198834527749327  0.6840308668841217  0.8957362753267759
  0.3954728411228317  0.7884761867574568  0.9786527682674233
  0.3863503616580530  0.8925317763862779  0.0677802533272995
  0.4206045517963872  0.9768989071688736  0.2016331054022515
  0.4922147296492909  0.0832191195447720  0.3964531377824372
  0.5085329549296418  0.1760398628604065  0.4781995338206215
  0.4884460341420436  0.2920175410109280  0.5789957091497797
  0.5153254089188337  0.3931284674174407  0.6635830094521538
  0.5007202009475975  0.4885858950977351  0.7834095045356051
  0.4982432484940844  0.5818673807766501  0.8756705478441020
  0.4925574338706227  0.6778914644889440  0.0110690021666144
  0.4939225447013200  0.8010020004285607  0.0747842694221532
  0.5134152886836034  0.8744520197138144  0.1839422761362854
  0.4842042508511710  0.9695671755434390  0.2984045937001483
  0.5921288007428416  0.0738262384228960  0.4982778595747703
  0.5758553848717867  0.1844996790552571  0.5847763915144881
  0.6077315178210014  0.2691788185995563  0.6665828785028935
  0.6132971481631415  0.4011503764196078  0.7927577519582840
  0.5870486750315465  0.4858948820266207  0.8706117849575037
  0.5976578895740587  0.5657292354943948  0.0122302997547692
  0.5974739653817736  0.6863730692126353  0.1176444289421710
  0.6274687969334067  0.7905191847813171  0.2058921801861828
  0.5866631737339603  0.8995059941429986  0.2869539106211789
  0.6102943244208490  0.9936515325825610  0.3772118411466394
  0.6964881555201075  0.1035705335587238  0.5850071345920327
  0.6830841203780835  0.1950815918668596  0.6789195266779373
  0.7152899235732448  0.2929751958286673  0.7756867431727841
  0.6957116073426803  0.3818462650889245  0.9064989376443435
  0.6816917759100960  0.4787162662793776  0.0050299145258421
  0.6957131030213546  0.6015788600271392  0.1258907506964135
  0.7087632227804121  0.7132201823766096  0.2127416866265079
  0.6978975772005427  0.8132404490369254  0.3199796561986616
  0.7116500321420887  0.9006499226208931  0.4140105426061282
  0.7161925782719436  0.9739334396800103  0.5185330530225443
  0.7963556820075723  0.0991673679198115  0.7235684297992933
  0.7998499069069780  0.1881446608414095  0.7769430584986097
  0.8030094131092085  0.2885972300659532  0.8921203566581752
  0.7999040018094803  0.3796901835670567  0.0057928387419324
  0.7797592466846055  0.5042946958405778  0.1169693554915341
  0.7849179057641464  0.6168980381419473  0.2128752720173352
  0.7880858231946846  0.7411060489035961  0.2858850598795257
  0.8027433765862710  0.8096061498535718  0.4046397452441610
  0.8273730382609941  0.8864670284040841  0.5345493931096854
  0.8128080331420691  0.0056939891907319  0.5989377857670064
  0.9110082345658412  0.1007838141948980  0.8114414123473281
  0.8856682340896640  0.1969065084164683  0.9111508992643067
  0.9090153267779328  0.2767910535463471  0.0229502507083197
  0.8936859927144596  0.3799971086402678  0.1388961434251570
  0.8875631418299577  0.4978042532320686  0.2128397038165772
  0.9087054603461837  0.6467377671960222  0.3108341134734900
  0.9067931901621407  0.7058605395109652  0.3937770581652842
  0.9004261450917852  0.7990374567272198  0.5051654008237918
  0.9068100469036438  0.8973240194281118  0.5994215356777204
  0.9083729454060645  0.9988717825766074  0.6999686369372142
  0.0065958786695575  0.1027237289588356  0.9403336730077854
  0.0294611423537532  0.2234566324611293  0.9828180471893546
  0.0131483669436463  0.3170856498654828  0.1389206376038672
  0.0108295954858235  0.4255860265231775  0.2094254989166942
  0.0097236975310082  0.5143863584200403  0.2922816666269838
  0.0100380643318019  0.6447467436489589  0.3894025685102704
  0.0047225851765447  0.7067999133353950  0.5263109611675887
  0.9950845603676086  0.8075709973572032  0.6151125177971934
  0.0287160900930914  0.9032527620770949  0.7251482059950973
  0.9997065550820210  0.9961373848241735  0.8105615666293673
  0.2059981829004087  0.1919913721101878  0.9839845741768087
  0.1906623599438078  0.3071299754767765  0.0896224447037000
  0.1919551501154757  0.3988041946620342  0.2061735549153596
  0.1976838056236758  0.5206654955834367  0.3051078669555451
  0.1982794762029485  0.6231357639103834  0.4049614613937749
  0.2209570234042033  0.7216706573653013  0.5065413085402710
  0.2071377819575702  0.7897143363253250  0.6348652417799556
  0.2145876364848434  0.9133690026427956  0.7144875469631700
  0.2047202504702241  0.0117545625104185  0.8013483769434089
  0.1716717225780329  0.0773489407395047  0.8869710297373885
  0.2658024842265689  0.2051102216613856  0.1024817990047850
  0.2882263803242751  0.3097011252113049  0.2216848103616584
  0.2917479331444497  0.3935746591747815  0.3074498764315123
  0.2744670093569184  0.5172407090307374  0.3993090383562290
  0.3060331387347901  0.5974437699102424  0.5400548029808832
  0.3009798023856547  0.6826229137401469  0.6087342991833538
  0.3164099973810153  0.7787593509678317  0.6971568324563719
  0.3042779105259399  0.8838284264660388  0.7968320444751313
  0.2995040575224408  0.0107105307016511  0.9007066584128935
  0.3091622675650569  0.1118558115282937  0.9871805504630871
  0.3831509506916504  0.1833913354443908  0.2020836584843195
  0.3862042846598897  0.2856152263041380  0.3102169834051551
  0.3955398661936655  0.4105259984286107  0.4047044165615077
  0.4026305192733517  0.4884992366848380  0.4955197828623099
  0.4100661050927386  0.5741752429704050  0.5942281674245820
  0.3993588981214700  0.6839563253255889  0.7111365119878101
  0.4123288174091115  0.7844372133996842  0.8002468245994123
  0.4116290245470324  0.9013457689102609  0.8935812799695242
  0.3907769629294506  0.0029534034903946  0.9678921892335879
  0.3998703173733986  0.0977830046903634  0.0607354024904154
  0.4769734649174993  0.1890517959096201  0.3164846036999123
  0.4878385752720149  0.2943782105188006  0.3952222051855898
  0.4926561372348246  0.3937848122663752  0.4958532596842957
  0.5043359429537375  0.5066098054808208  0.5874613723482796
  0.4976961143782290  0.5855605947477471  0.7065563438965725
  0.5089964215137712  0.7130885597961978  0.8037006842694225
  0.5117219166210347  0.8048733425394659  0.9186037665769859
  0.5110270426894630  0.9157272622080441  0.0012099583343286
  0.4891857955762973  0.0066960743791782  0.1026775557724804
  0.4799882093283472  0.1096013313968740  0.2221429646913151
  0.5793062831837332  0.1643577924335133  0.3808632751601166
  0.6095896507226044  0.2741249813099671  0.4726128244565615
  0.5968969929287411  0.3769106083188518  0.5908034318230548
  0.6217758805742690  0.4967481107592704  0.6675247251255954
  0.6003505187971712  0.5757283712292534  0.7704295950096451
  0.5942983805147506  0.6612924892264473  0.8968030118330503
  0.5753839241922805  0.8081565272255418  0.9976094326325580
  0.5822821613771083  0.9016461169972132  0.1033830046903645
  0.5767839260970007  0.0031326501749973  0.1771902530892149
  0.6027313768719793  0.0632687978857618  0.2923523863717534
  0.6792585938430022  0.1883806814123474  0.4739018875741081
  0.7047706564129399  0.3006438418132902  0.5693288507416483
  0.6984889655008217  0.3798839656198680  0.6762924039903808
  0.7130127749339294  0.4981868160281877  0.7967594262041402
  0.6963565057974819  0.5719597238161001  0.8853181948048885
  0.6710151129734996  0.6799189581200480  0.0015087288397879
  0.6597544548939283  0.8003900473798211  0.0981485893193010
  0.6881153258255779  0.9069413571105471  0.1888765800814269
  0.7062019947144123  0.9855073826813623  0.2833615675817214
  0.7161174076807697  0.0782700992833512  0.3871588190757365
  0.7957611190209732  0.1974519054308246  0.5822614966310340
  0.7944651198780974  0.3173519378110043  0.6843456303421362
  0.8049495783433755  0.3992751986857428  0.8016246779838596
  0.8022246627461271  0.4668546958405742  0.8988824794647741
  0.7744472698269078  0.5861906926025569  0.9975897421489961
  0.7688721659008095  0.7119585900335679  0.0990438851455906
  0.7990937515773453  0.8435300921406608  0.1894588295516755
  0.7948626832694430  0.8972989990714524  0.2928385028927849
  0.8131360753315420  0.9874200838075282  0.4113287212209258
  0.7875108492654945  0.0958252551129704  0.4895741644246598
  0.9005902640413339  0.1911366338896698  0.6884907616485307
  0.9017033661103326  0.2656936077712402  0.7745623375633883
  0.9002350405942749  0.3524487688388405  0.9008875379157644
  0.8768824923216130  0.4884425247017958  0.0226323106592687
  0.8740818742410923  0.6153201947572668  0.0778589766910329
  0.8937359039070500  0.7061836756267681  0.1842933273017309
  0.8921176010095024  0.7969407195066793  0.2921476617223391
  0.9021056346277447  0.8820213885383694  0.3841051522582788
  0.8948974595842927  0.9925842518035282  0.4932388724078010
  0.8981650494035875  0.1034394028713592  0.5878180581414725
  0.9999874222042351  0.1849797076260060  0.8033471588771661
  0.0031805976048176  0.2989265117497197  0.8618537315778170
  0.9925920473322094  0.3957934582509921  0.0159667307921225
  0.9845811956858199  0.5153551258303395  0.1132001709483106
  0.9845014809171175  0.6036319535249177  0.2106272093521611
  0.0026113521106623  0.7302747582200411  0.3183431327825517
  0.0322963358015258  0.7678089212161581  0.4072644437037241
  0.9922665017499597  0.9004253960619977  0.4871976314849675
  0.9895454927263643  0.9715395838194354  0.5991819975714847
  0.9965630175472029  0.0880731892097799  0.6820037546725075
  0.1209261212828281  0.2112161705673685  0.8983034713459190
  0.1062646436989567  0.3197696659603366  0.9932115387728828
  0.0995021351872580  0.4112997114354400  0.1044885121782784
  0.1240267488869335  0.5368790300230941  0.2112748372657762
  0.1060087983619411  0.6543576410085450  0.3067898473845858
  0.1116609409299798  0.7511297421489971  0.4137920173329235
  0.1025342310897344  0.8210377062450860  0.5112185981286146
  0.1203831827813602  0.9095582109949731  0.6272132063522307
  0.1108027046975053  0.9962106464131821  0.7259212423513759
  0.0640266993642982  0.1052523587533614  0.8073422932787295
  0.2985175129163622  0.3056755372491153  0.9998820470941183
  0.3080081493297797  0.3990633103973735  0.1275842070426876
  0.2867344844170390  0.5131923844670396  0.2032564234184875
  0.2925561867574586  0.6292844913216342  0.2952036356277219
  0.3167256674841070  0.6908739758577198  0.3970180309992628
  0.3135145815575839  0.8134294354896312  0.5258413647294091
  0.2970468550748819  0.8974555891526421  0.6102682345658437
  0.3115002885645595  0.0116739263350851  0.7072002661841381
  0.3205173133973034  0.1085614699650037  0.8083072503035638
  0.3012511964000879  0.1877040889502624  0.8876707806957000
  0.3955241560915184  0.2947433118259113  0.0980301254732012
  0.3991760577129142  0.3906236665793656  0.2264596500083300
  0.3772285912240179  0.5061074383943236  0.2978558243851310
  0.3915600276183895  0.6333913187781235  0.4071223528011245
  0.4015641822813762  0.7062681336158647  0.5203459146210818
  0.3950179610009315  0.8027937544344184  0.5947329225494613
  0.3973972929215961  0.8874954420132823  0.7116581038546670
  0.4113921211399756  0.0121638689555041  0.8054984443227511
  0.4130648475036338  0.1395081540915726  0.9047038560986636
  0.3991517397204802  0.2293443151353571  0.0133687002690408
  0.4963305954620125  0.2782628846932198  0.2146181895669130
  0.5036685674150618  0.4040844956072505  0.3176710716411506
  0.4925709302159476  0.5207416009142634  0.3966720711411611
  0.5007052998738146  0.6142155634389681  0.5061281759958121
  0.5017429375491034  0.6956383409918843  0.6148609523582778
  0.4861094892978741  0.7967248103616598  0.6862060931882610
  0.5053501783290884  0.9003614775838642  0.8092215456774809
  0.4905169134068217  0.0286054693935824  0.8974700497607202
  0.5095572443513277  0.1272723401823797  0.9853986466988900
  0.4961830356420052  0.1996273150639283  0.1041035642008552
  0.5990788000285718  0.2988635375348210  0.3002887512202079
  0.5927682712316340  0.4168677983857521  0.3930366648413113
  0.5994650179757599  0.5009908092664475  0.4933577752910665
  0.6131213275874359  0.6089266126996975  0.5992569791195450
  0.6001345072736370  0.7060995885812247  0.6971089893097755
  0.5992010318801917  0.7873285583676548  0.8163527211256891
  0.5942534301564280  0.9384612418751956  0.8891452032094449
  0.6229829908811695  0.0271007814099633  0.0061313363967557
  0.5751194052522592  0.1315941949001243  0.1067758453370189
  0.6227272764934142  0.1845840013332989  0.2201869155496325
  0.6968570824504212  0.3166756067712697  0.3888084183709921
  0.6929869441203778  0.4026144744172768  0.5031285412252089
  0.7075984233708752  0.5156824161329467  0.5823909673579166
  0.7015741244256120  0.5983509764053210  0.7071114611556837
  0.7009371634008730  0.6801904078474337  0.7935973438727615
  0.6921411885431326  0.8022901640437112  0.8847554301088039
  0.6912935434870633  0.9000929835003930  0.0199560115235329
  0.6951592904930806  0.0223206195090597  0.1104212428275488
  0.7134243722768474  0.0954493921573274  0.2059099997619072
  0.7196129501678499  0.1990861160448532  0.2924117582914718
  0.8008750082140921  0.3017569257874797  0.5031667141258538
  0.8164434875360129  0.4270896921501901  0.5707199185733671
  0.8173720587605047  0.4898353596342915  0.7016105726054107
  0.8134529987381285  0.5923236527701690  0.7934227756481960
  0.7790458584319424  0.6958825370824471  0.9219418118616218
  0.7932374495845309  0.8074530087378875  0.9927915959143832
  0.7789870636413383  0.9117813904430818  0.0982937872907783
  0.8026686293183474  0.9883687440775191  0.1928595319159072
  0.8151451627342183  0.0817143734672996  0.2806668245994146
  0.7946448760743792  0.2072227699340488  0.3852171843527543
  0.9141231832575443  0.3143163819909063  0.6082221009023598
  0.9056601638056208  0.3983244946548865  0.6805032251613028
  0.9221670355467708  0.4942449365491299  0.7904855003452269
  0.8922543534677772  0.5829517325777971  0.9101187028880275
  0.8789970614985378  0.6890301497583380  0.0000942291850166
  0.9011775705340384  0.7986925144639443  0.0840603980857608
  0.9194510921168515  0.9095339825242235  0.1891430065950814
  0.9130842313278222  0.9966055022499489  0.2930034122997043
  0.9107081550439275  0.0968822137568139  0.4146556677221938
  0.8992440332373022  0.1999835465822244  0.5016230746886947
  0.0037095207256996  0.2930179276683873  0.6951542691840658
  0.0022012161615166  0.3886502230899254  0.7922226994595363
  0.9839478326706512  0.4748898369086447  0.8953742344229880
  0.9678004642746600  0.5828550672603043  0.0137176648175057
  0.9901415352015448  0.6909146982214693  0.0965337263398496
  0.0160030056427232  0.8184124782743254  0.1928979257636740
  0.0057619485250342  0.9044552582081380  0.2962346748886944
  0.0029977895764404  0.9926801099973801  0.4171160777124356
  0.9869644317992439  0.0864905768910234  0.4995500440465719
  0.9881458993833476  0.1920039760958048  0.5743165477012440
  0.1239485945572696  0.2861304307040342  0.7816661312825914
  0.0956629137401492  0.4191175795814388  0.8798329654055834
  0.0707312363991335  0.4873080821885196  0.9890750291659742
  0.0948803376110092  0.5914478840979953  0.0942613633008733
  0.0954206999833360  0.7138554148710767  0.1867668617413898
  0.1286301064260371  0.8211608314087755  0.2958033227780277
  0.0973492145425112  0.8839742377562416  0.4094433242065634
  0.1038446027475501  0.9758702978500509  0.5012742006142688
  0.0963321087593130  0.0748370186424125  0.6078086040808586
  0.0828367410299720  0.1868250165472247  0.6862901669007897
  0.2097447113163966  0.2957964362753245  0.8914111916382907
  0.2117289374062494  0.4115937734815844  0.0117070460227140
  0.2122252108283149  0.5021960977119591  0.0999739077641024
  0.2010108345039399  0.6260220199519040  0.1906542391847807
  0.2076263512773480  0.7437378048141738  0.2961993814433015
  0.2142918135282486  0.8111155815337696  0.4213350786885997
  0.2044248289326447  0.8858587324111298  0.5086755277255293
  0.2051203799909516  0.9873921606628429  0.6094950424989847
  0.2045244884645570  0.1151487983619432  0.7170613133020609
  0.2047519449536921  0.1666034589652625  0.8013473960143784
  0.3873680264755635  0.3861997876241077  0.9736594014428235
  0.4191800152377354  0.4776451408299778  0.1093090507368899
  0.3974465941287093  0.6131222894692954  0.1878589824051815
  0.4130007818861472  0.7296940729982637  0.2949656051046432
  0.3979292245422741  0.8104093564438912  0.4131087678864773
  0.4033480159996188  0.8812330973072093  0.4971733215875815
  0.4050821718530528  0.9754768943596588  0.6172511821147140
  0.4150382619461439  0.1339839637151528  0.7032756177233850
  0.4105720297135775  0.2019783295635804  0.7999189071688804
  0.3946001242827535  0.3103512068760281  0.8861176738649092
  0.4827757443870411  0.3947599514297266  0.0951499073831599
  0.5098310573557754  0.4738203790385924  0.1909798638127640
  0.4855842875169643  0.5968269193590601  0.2930293502535619
  0.5054560191424002  0.7194848332182602  0.3897985290826398
  0.4971172091140659  0.7847976686269362  0.4808736682459909
  0.4944238960977145  0.9052769576914841  0.6097841932334944
  0.4920808256946287  0.9783532287326508  0.7141616713887800
  0.5195673479202867  0.1021382190900226  0.8033177433870620
  0.5248095031070719  0.2301526592223979  0.8946652484464650
  0.5064347629818329  0.3003690540701385  0.9887629894526313
  0.5853983148020276  0.3825003814194901  0.1860000423799448
  0.6017579619532896  0.5025044689412184  0.3206268141234716
  0.5886225575581534  0.6021231575438648  0.4031355582009937
  0.6043147196495298  0.7252662422323297  0.5059293535868221
  0.5744738496702482  0.7880554986786024  0.6105545487012236
  0.6135945420347113  0.8980506740315732  0.7247183638484813
  0.6145034113473500  0.0126760981881375  0.7854407271255468
  0.6122530349277397  0.1105322492321577  0.9172265269874558
  0.6176139863336587  0.2415327949334554  0.0042537072926834
  0.5921749020261444  0.2871610171186418  0.1120499311921179
  0.6777688397895290  0.4163412142568035  0.3167486140806162
  0.7043979290969276  0.5117412280660005  0.4034778062427051
  0.6989270212613974  0.5993689721673263  0.4877658646222685
  0.7073580952834462  0.7012323173257755  0.5974716292469253
  0.7057134972976797  0.7920400995214365  0.7302631694483495
  0.7045561691388329  0.9098077141020440  0.8079884212280675
  0.6901638318135284  0.0163522054236793  0.9261564162758020
  0.6804938820504276  0.1321294416799574  0.0536932053998740
  0.6950489335968157  0.2019697992904952  0.1244807837908652
  0.7170344901311907  0.3170629556439124  0.2262787605056999
  0.7872863941334742  0.4289069050736884  0.3834799638103874
  0.7943111464012773  0.5091282798028587  0.4584761024737531
  0.7966376514844882  0.5900132911121148  0.6119785305111805
  0.8246018490035922  0.6885539030023082  0.6950412423513725
  0.8016955743910827  0.8002266374610159  0.8051496307230792
  0.7972811556867683  0.9067707630770698  0.9029751510678352
  0.7940793438251461  0.0121987866955564  0.0212464669888845
  0.8142642513273515  0.1289222456608172  0.1045793919192377
  0.8294760267612702  0.2285732753982046  0.2177301721387579
  0.7864699626199396  0.3387777914811565  0.3246343391824027
  0.9076840584747998  0.4181163486583657  0.4935997295302528
  0.9165228361229509  0.5121228365991257  0.5837229918335254
  0.9223041270445975  0.6096074407752212  0.7021584919406649
  0.8767876136282453  0.6854162262803243  0.8011504768934046
  0.8688342887074114  0.7945672993500139  0.8829112825885090
  0.9065396481036174  0.8967154096331029  0.0146873069688809
  0.9012308745029856  0.0062457589105023  0.0864098002428548
  0.9060737420537635  0.0974603466584156  0.2032109654532022
  0.9018578210042634  0.1914267869812605  0.3130923716102032
  0.9012944625127943  0.3231721339968061  0.4134934263469887
  0.9871365005595081  0.4182777181495680  0.5817926392228756
  0.0014288459798593  0.4887079931430236  0.7034398723839885
  0.0094899121449501  0.5731501673769657  0.8093877698150038
  0.9897938020523327  0.6864299154782003  0.8990204480845705
  0.9703808728363583  0.7785857393871538  0.9745247770291172
  0.9968432865884154  0.8998027089831169  0.0829925925573178
  0.0004028913597267  0.0241032503988023  0.1761490578795772
  0.9826666912692588  0.0846826570795969  0.3019460231899274
  0.0034228885026550  0.2136957810528344  0.3961898954786776
  0.0020169481678991  0.2887014742506153  0.4866186009856932
  0.0721368886455096  0.3901754491559757  0.6781166186519343
  0.0969105321301882  0.4766847317920977  0.7971421789957418
  0.0879016037713356  0.5915347448870278  0.9153030465941256
  0.0994470869741164  0.6854124263708030  0.0177740710935481
  0.1023061322349434  0.8099311011642598  0.0745723087545542
  0.1214644198947639  0.9124794504892719  0.1892944577510036
  0.0815262888978836  0.9810752896359602  0.3075190776410111
  0.0861985895573909  0.1090505635580072  0.4000306949834496
  0.1053889793100140  0.1897390462131838  0.5110209995000119
  0.0891335244398945  0.3010042618032926  0.5851221180448078
  0.1779602680888530  0.3961098464322248  0.7815247479821892
  0.2115992881121898  0.5086431484964677  0.9050734234899167
  0.2120849551201189  0.5802411004499888  0.0034174438703829
  0.1794663079450487  0.7089164519892392  0.0788640684745587
  0.2173000209518818  0.8003000795219180  0.1798576752934480
  0.2076848579795723  0.8854169024547005  0.2971392895407234
  0.1905562253279669  0.9941371819718583  0.4050926973167321