Li 
 1.0000000000000000
    21.0004999999999988    0.0000000000000000    0.0000000000000000
     0.0000000000000000   21.0004999999999988    0.0000000000000000
    -0.0000000000000000   -0.0000000000000000   21.0004999999999988
 Li 
 500
Cartesian
 -0.0034066400000000 -0.2121830300000000  0.2081687700000000
  0.3537069300000000  2.8373996600000000  2.0189083900000000
  0.2131551600000000  4.2583854499999996  4.6760271299999996
  0.2544542700000000  7.1644785200000003  6.5618727300000002
 -0.1395030600000000  8.7342027099999999  8.0310461499999999
  0.2851960500000000 10.9830778099999993  9.9420016499999999
  0.1843393100000000 12.9172915699999997 12.7886288700000001
 -0.0216977000000000 14.9036365699999998 14.8467495899999999
 -0.0087332200000000 16.8967622599999991 17.3284387899999999
 -0.0962573500000000 18.9123808500000017 19.0300013700000008
  2.1699202099999999  0.0512289600000000  1.9792836599999999
  1.6425570599999999  2.1884545100000001  4.6837915600000004
  1.9304106599999999  4.1012642599999998  6.8059584800000001
  2.2517652199999998  6.7974789600000003  8.2685000100000003
  1.4876806000000000  9.1508508299999995 10.5856656999999998
  1.8037292700000001 10.7617046399999996 12.6423854700000007
  2.1003124299999998 12.6635664899999991 14.6769399099999998
  2.4433015999999999 14.2652858299999998 16.8813358999999998
  2.1866327700000001 16.1414847600000009 18.8765033299999985
  2.1727287799999999 18.4651907900000012 20.6565467200000015
  3.9753941500000001  0.2924752300000000  4.2024999799999998
  4.0101069499999999  2.1536556899999999  5.9287075400000004
  4.2180718199999996  4.0954631099999999  8.5423080500000008
  4.2706977100000003  6.6046847199999998 10.7530713700000007
  3.9382274000000002  8.2479826099999993 12.7796229500000003
  4.2077559000000004 10.2006517700000003 14.5302994900000009
  3.9187256499999998 12.5427175900000005 16.8510778999999999
  4.3338381600000000 14.2202966800000006 19.1818322700000010
  4.2130525399999996 16.9086729300000016 -0.4869570400000000
  4.2097500200000004 18.9282061500000012  1.5880795299999999
  6.3187108199999997  0.2722846500000000  6.1824493399999998
  6.0100375899999996  2.1453855499999999  8.3296344100000006
  5.6240961699999996  3.9499822299999998 10.1329532400000009
  6.3616597900000000  6.3082607499999996 12.6593924300000005
  6.5485852700000002  8.1832636700000005 14.7793006699999996
  6.5608398200000000 10.4656131699999992 17.0082178400000004
  6.5963965199999999 12.4209661400000009 18.9310644199999984
  6.2735851800000004 14.5843925300000006 -0.0002884700000000
  6.0501882199999999 16.8234077000000006  1.8338226000000000
  6.2380217299999998 18.9467874599999995  3.6596321600000001
  8.2813723499999998 -0.0611413800000000  8.5100916499999997
  8.1369349999999994  2.1125537799999998 10.8676424899999997
  8.2352775600000001  3.8711792900000002 12.0717715200000004
  9.0091922800000006  5.8291553299999999 14.3365810499999995
  8.3554181300000003  7.7233592099999999 16.4443760999999995
  8.5251169400000002 10.0441042399999994 18.6016843399999985
  8.6972990100000001 12.1643007599999997  0.2362783700000000
  8.6747779900000008 14.8687006000000004  2.2665491800000002
  8.4876244900000000 16.8649653899999983  3.9047185700000000
  8.1509054699999997 18.6523392699999988  6.2476332899999996
 10.6343138100000001 -0.0840709000000000 10.5805167200000003
 10.5569542700000003  1.1647897700000001 12.5709526100000009
 10.7114259000000001  4.0228942600000002 14.5222917099999993
 10.9981840599999998  6.5361407600000003 16.5631018300000008
 10.8431271400000000  8.0432270799999994 18.3183371800000003
 10.3604122699999994 10.5327276699999999 -0.3980778800000000
 10.6123336199999994 12.0449096299999994  2.2409235800000000
 10.8525616399999993 14.6720260499999995  4.0186821799999999
 10.7973858000000007 16.6581711699999993  6.2599633199999998
 10.0757054400000001 18.5630521100000010  8.4734136600000003
 12.7439329899999994 -0.2727427200000000 13.0512672599999995
 12.8057749600000008  2.0938797099999999 14.7131492700000006
 12.9620959399999993  4.1357560900000001 16.3670176100000013
 12.8051343400000004  7.1063364499999997 18.1423135900000005
 12.7416309099999996  8.2823155100000001  0.3427710600000000
 12.5883463599999992 10.6475450299999999  2.1965540300000002
 12.6591469199999995 12.7470818200000000  4.4517524799999997
 12.8317779600000001 14.8356605899999998  6.2699636900000000
 12.8042880399999994 17.3578527800000018  8.9423352299999994
 12.8622978900000007 19.1879852200000016 10.4668720099999994
 15.0842692700000001 -0.2308810000000000 14.8884540199999993
 14.5565519900000009  1.7158191199999999 16.9365518500000007
 14.6572354699999998  4.3282688199999999 19.0284725700000017
 14.7177247100000006  6.0719748300000003  0.2044464200000000
 14.4603121100000003  8.3398600399999996  2.4808337800000002
 14.3688940100000000 10.6366087000000000  4.6599655499999999
 14.5183746300000003 12.8571268399999994  6.4042192699999996
 14.2106264499999995 14.8154272799999998  8.5444159400000004
 15.3410803100000006 16.9242041999999984 10.2286924900000002
 14.3506377599999997 18.5176250300000014 12.6613738599999994
 16.0760652600000000  0.1548024100000000 17.0567136999999995
 16.7769612499999994  2.0526010299999999 19.6166937899999994
 16.7267550599999986  4.3522132700000000  0.4541621600000000
 16.8814036899999991  6.3080978700000001  2.3622711999999999
 17.1304473600000016  8.6894905799999993  4.5154418099999996
 16.6771725300000000 11.1309732399999994  6.5458836199999997
 16.7776681699999983 13.4134434400000000  8.1240012499999992
 16.6106185500000016 15.1987895799999997 10.4259477300000007
 16.6695907500000011 16.9442242800000002 13.1067955299999994
 16.7694652700000013 19.0002445000000009 14.4577098300000007
 18.8164796000000010 -0.3141512800000000 18.8602536200000017
 19.4644093799999993  2.5339702800000001 21.0940327699999983
 19.6959120500000004  4.4640357200000000  2.4363499100000001
 19.2154383600000003  6.1662928800000003  5.0087975900000004
 18.9049006199999994  8.5207862399999996  6.8911697800000002
 19.0407604500000005 11.3264615699999993  8.4881442299999996
 18.7882726899999994 12.8737375800000002 10.2861290099999998
 18.8341019400000000 14.8412279799999993 12.7028634900000004
 19.1814273600000007 17.1522510500000003 14.7863153000000001
 18.9968865899999990 19.0720704900000015 16.9049811800000001
  1.9026058400000001  2.5351699299999999  0.1695042400000000
  2.4221406000000001  4.5066354200000003  2.7202279699999998
  2.4348998599999998  5.8722804899999996  4.8733339300000003
  2.3780166600000001  8.6600871300000009  6.5046497900000002
  2.0303960900000000 11.0923028299999995  7.9749092800000003
  2.1752234499999998 13.5361091800000004 10.5067073400000002
  1.9272008100000000 14.9164870399999998 12.7144469600000001
  2.6334439299999999 17.1130239700000004 15.4492509400000007
  1.8160495800000001 19.0651848900000012 17.3715524600000002
  2.2076882800000002 21.2444949399999992 18.9328673599999995
  3.9332208500000001  2.1146389200000000  2.4211853799999998
  4.3883820900000003  3.6157748800000000  4.2937563900000004
  4.4188889199999997  6.2487596999999999  6.6459311999999997
  4.0258178300000003  8.7769215700000007  8.2025157300000000
  3.5327789400000000 10.7403501499999994 10.2366690800000004
  4.2184426500000001 12.1076031999999998 12.4564914800000004
  4.2253747400000004 14.2653265200000003 14.7551676300000008
  4.6444498300000001 16.0953347399999984 16.9648658300000008
  4.1890762099999996 18.5669571200000014 18.5560919499999990
  3.9937588700000002 20.9335444300000013 20.6917706400000014
  6.5717006299999996  1.6850643400000000  3.8956578700000000
  5.9968377400000001  3.8994887899999999  6.1902767200000000
  6.1029624299999998  6.4923581199999996  8.2985525100000004
  5.8023913000000000  8.7542232599999998 10.5700490100000000
  5.8045272900000002  9.9734944399999996 12.4925455099999994
  6.3834984199999996 12.3798790200000006 14.7987920099999997
  6.3090705600000003 14.3953728800000000 16.4839191599999992
  6.4270252599999997 16.5238180200000002 18.6070369199999988
  6.0774211400000002 18.4857547800000006 -0.4355452600000000
  5.8205083699999998 20.7179788800000004  1.7488338500000000
  8.3024814700000000  2.2853651199999998  6.2883784000000000
  7.7734856800000003  3.9232832900000001  8.3120571900000009
  8.0326929600000003  6.1847610800000004 10.3995687199999995
  8.7381355799999998  8.1825455300000005 12.0904380200000006
  8.6006491300000008 10.0049048799999998 14.6670921500000002
  8.7561584299999993 12.7962683699999999 16.5174636499999998
  8.8177624500000000 14.3649902199999993 18.8109096499999993
  8.3051273999999999 16.5583941599999989 -0.4483025400000000
  8.1135507699999998 18.7436135700000008  1.4234192100000000
  8.8329058899999993 20.5153655000000015  4.2343960300000001
 10.3367554300000002  1.7476431200000000  8.3257141200000007
 10.6794463200000003  3.6969251399999998 10.0424293099999993
 10.2576109399999993  6.1325143700000000 12.1591993899999995
 10.8220912499999997  8.2558943800000009 13.9355749899999992
 10.5153745799999996 10.2605480900000003 16.4519912999999995
 10.4633573400000000 12.2195059300000004 18.3895193399999997
 10.3439523900000001 14.2360597000000002  0.2324545800000000
 10.3726204000000006 16.8214425100000007  1.5705070500000000
 10.7819777699999992 18.3639296399999985  3.8628797700000002
 10.1685313700000002 20.3613954700000015  6.2666456699999999
 12.4350008800000005  1.5503879199999999 10.4640841899999995
 12.0932510099999995  3.8745855100000002 12.2805966099999999
 12.7626657399999992  5.6528897799999998 13.9985737399999994
 12.8795467600000002  8.4243584800000004 16.6483091700000010
 12.3283156999999992 10.2040354700000009 18.2832827900000012
 12.5511145099999997 11.8805968100000001  0.2568424100000000
 12.5472520099999993 14.4141776400000001  2.4705918300000000
 13.1771584700000002 16.6012981400000008  4.3238387300000003
 12.3202199799999992 18.8900756299999983  6.0261756000000002
 12.8164859599999996 20.8671790100000010  7.9216372699999997
 14.6265995100000001  2.1750329900000001 12.2854423300000004
 14.3451080700000002  4.0968109699999999 14.2576495199999993
 15.0214460400000007  6.1526256000000004 16.2898094499999999
 14.6102916100000009  8.0189624899999998 19.0369309400000013
 14.3158681399999992 10.0532809499999995  0.1056307200000000
 14.6103230199999992 12.6334568500000000  2.6437687099999998
 14.8843820600000001 14.9779804399999996  4.4676817900000003
 14.6561980700000003 17.0784560499999998  6.7197327700000002
 14.9450064999999999 18.9140987000000003  8.6944283999999996
 15.0404022400000006 20.4530892000000009 10.8894533800000008
 16.7238675000000008  2.0825643100000000 15.1952988100000006
 16.7972479700000008  3.9511319500000002 16.3161926999999984
 16.8635991800000014  6.0606861299999997 18.7349735499999994
 16.7983839900000014  7.9736836999999996  0.1216525100000000
 16.3753340600000001 10.5904407599999999  2.4564149500000001
 16.4836684799999986 12.9551672500000006  4.4704871500000003
 16.5501963299999986 15.5635975799999997  6.0037292000000004
 16.8580122800000005 17.0021339500000011  8.4976369700000003
 17.3752474899999996 18.6162508299999985 11.2258045299999996
 17.0693750999999985 21.1200766199999990 12.5779929700000004
 19.1316284299999992  2.1165104900000000 17.0406753799999997
 18.5994757499999999  4.1351351300000001 19.1346244600000013
 19.0897763699999992  5.8127505199999998  0.4819667400000000
 18.7678526900000016  7.9801292799999999  2.9168884600000000
 18.6392697600000012 10.4541382200000008  4.4697402000000004
 19.0832690199999995 13.5818164800000005  6.5276718000000002
 19.0431103899999989 14.8234242599999995  8.2695151100000004
 18.9093992600000007 16.7801861099999989 10.6087260000000008
 19.0434643900000005 18.8442530700000006 12.5881519599999994
 19.0762860399999994 20.9768068700000008 14.6996913599999992
 21.1390167499999997  2.1572496700000001 19.7474772999999999
 21.6191987200000000  4.6927010100000004 20.6396704000000000
 21.2766222800000016  6.6589571899999997  2.9174028500000002
 21.2279269200000016  8.9375193500000005  4.3980401899999997
 21.2047025100000006 10.8023707200000008  6.1380611399999996
 21.2113043700000006 13.5400039900000007  8.1776486399999992
 21.0996766499999993 14.8431515800000007 11.0527933399999991
 20.8972733099999992 16.9593947299999996 12.9176704299999994
 21.6035522499999999 18.9687596300000010 15.2284749000000001
 20.9943375100000011 20.9193831500000016 17.0221981800000002
  4.3260648399999999  4.0319148100000000 -0.3363319500000000
  4.0040048900000000  6.4498830500000004  1.8821161500000001
  4.0311541300000000  8.3750874900000003  4.3297477400000002
  4.1514587599999997 10.9342357400000001  6.4074177600000004
  4.1639681399999997 13.0861626100000006  8.5043931700000002
  4.6402079699999996 15.1554446400000007 10.6376207500000000
  4.3499969900000002 16.5843959199999986 13.3324875100000000
  4.5064476600000001 19.1812057399999993 15.0045957300000001
  4.2992276199999999  0.2468516900000000 16.8287165899999991
  3.6051920100000001  1.6243664300000000 18.6268351099999983
  5.5819850700000000  4.3074172099999997  2.1521690200000001
  6.0528981000000002  6.5038784800000000  4.6554918599999997
  6.1268524700000002  8.2652646300000008  6.4566011300000001
  5.7639444299999996 10.8623135099999999  8.3856894600000000
  6.4268489300000002 12.5466178900000003 11.3414208900000002
  6.3207263400000002 14.3354225000000000 12.7837246499999999
  6.6447681500000000 16.3543357500000006 14.6406420599999993
  6.3899882600000000 18.5608388700000013 16.7338713500000011
  6.2897349599999997  0.2249265000000000 18.9152901799999995
  6.4925622000000001  2.3490279699999999 20.7312851500000015
  8.0463615399999995  3.8513097400000000  4.2438578700000003
  8.1104830799999998  5.9980625600000002  6.5147117600000000
  8.3065349600000005  8.6212512300000004  8.4989951000000001
  8.4554422200000001 10.2587282200000001 10.4061631999999999
  8.6115932399999995 12.0579671899999994 12.4790886299999997
  8.3867365399999994 14.3634248099999997 14.9342223199999999
  8.6591113300000000 16.4735736999999993 16.8055834399999995
  8.6444153299999993 18.9287118200000002 18.7656536699999990
  8.2065116099999997  0.0620229500000000 -0.6742800799999999
  8.3974765999999992  2.0534919899999999  1.2754738200000000
 10.0166812499999995  3.9701822400000002  6.6463349200000001
 10.2448540000000001  6.1820896100000002  8.2998639200000000
 10.3460252100000005  8.2696779500000002 10.4131663799999998
 10.5913069699999998 10.6390592200000000 12.3369825500000001
 10.4518672499999994 12.2970652699999992 14.8380364999999994
 10.6891793499999999 14.9752162999999996 16.8781162199999990
 10.7464161100000002 16.9027426299999988 19.2911384000000012
 10.7318234100000005 19.2307303699999999  0.0254097300000000
 10.2731463000000005  0.1406209100000000  2.1562800100000001
 10.0799923899999992  2.3016827599999998  4.6651133299999996
 12.1657215999999995  3.4515958200000001  7.9983192100000000
 12.8016874600000001  5.7567616700000004  9.9251056200000001
 12.5351353000000003  7.9153112300000004 12.4071674699999992
 13.0576043800000008 10.4319586999999991 14.0183529900000003
 12.6076610700000007 12.0905836600000001 16.1794067099999985
 12.4805631399999992 13.8874729200000004 18.8333116499999988
 12.0833501000000005 16.9716911500000016 -0.0502031100000000
 12.2282165299999992 18.9350192799999988  2.1710947900000002
 12.1127508400000004  0.0657872200000000  3.7210839099999999
 12.6576602800000000  1.3286763900000000  6.1395462900000002
 14.2647700999999998  3.9560884999999999  9.9521765900000005
 14.8005361700000009  6.3136710000000003 11.9561905300000006
 14.6686175199999997  7.9777532200000003 14.2024786299999999
 14.9736247799999997 10.4621722300000002 16.7323463299999986
 14.6238347999999991 12.0114401799999992 18.5921247500000000
 14.0916528799999998 14.2786380800000003  0.0316840600000000
 13.8551734300000007 16.8085911900000013  2.0611694500000000
 14.4507659000000004 19.0462219700000013  3.9665026200000000
 14.8305949899999998 -0.3043522100000000  5.9507345999999997
 15.0388236200000005  1.6437112199999999  8.1305287800000006
 16.7113813799999988  4.1465887400000003 12.2277825599999996
 16.6841647500000008  6.6645493699999996 14.3716004099999992
 16.9043436199999988  8.3849788099999998 16.8345190500000008
 16.8471190300000018  9.8041820400000006 18.8769815100000002
 16.2637798899999986 12.3102976399999999 -0.0506166200000000
 16.1466999199999997 14.9514863699999996  2.0799711099999998
 16.7813683299999994 17.7145536999999997  3.9787301500000001
 16.6925137799999987 18.8437276300000001  6.1497549800000000
 17.0762641500000001 -0.2641845300000000  8.6381088100000003
 16.5381215899999994  2.0123782700000001 10.2813022400000005
 18.9128458399999992  4.0139648799999996 14.4586502400000008
 18.9362215399999982  5.5796986100000003 16.2661963699999994
 18.9053859700000011  7.4016003699999997 18.9190887399999994
 18.4149707800000009 10.2575372399999996  0.4752898400000000
 18.3561563999999997 12.9220317500000004  1.6350774400000001
 18.7689008500000014 14.8302102799999993  3.8702520200000001
 18.7349156800000003 16.7361535799999999  6.1352469699999999
 18.9446693800000006 18.5228901700000002  8.0664002499999992
 18.7932941000000007 -0.1557344200000000 10.3582629399999995
 18.8619151199999990  2.1722791799999999 12.3444731300000008
 -0.0002641400000000  3.8846663499999998 16.8706920099999991
  0.0667941400000000  6.2776062100000001 18.0993592899999989
 -0.1555707100000000  8.3118605199999998  0.3353093300000000
 -0.3238026000000000 10.8227153200000004  2.3772601899999999
 -0.3254766500000000 12.6765728400000004  4.4232767099999997
  0.0548397000000000 15.3361350600000002  6.6853649600000002
  0.6782392000000000 16.1243712499999994  8.5527569499999991
 -0.1624073300000000 18.9093835299999995 10.2313938600000007
 -0.2195498800000000 -0.5976829700000000 12.5831215400000005
 -0.0721783500000000  1.8495810100000001 14.3224198499999993
  2.5395090100000002  4.4356451899999998 18.8648220500000008
  2.2316106499999999  6.7153228699999996 20.8579389199999987
  2.0895945899999999  8.6374995899999991  2.1943109999999999
  2.6046237400000001 11.2747280700000001  4.4368772200000004
  2.2262377700000000 13.7418376400000000  6.4427401900000003
  2.3449355900000000 15.7741001500000007  8.6898392599999994
  2.1532701200000002 17.2422023499999995 10.7358461700000003
  2.5281070300000001 19.1011772099999995 13.1717909399999993
  2.3269122000000002 -0.0795783200000000 15.2447090500000009
  1.3445927000000000  2.2103521599999998 16.9545918299999983
  6.2690170299999997  6.4193391200000001 -0.0024770700000000
  6.4683251400000001  8.3805290499999998  2.6793321400000001
  6.0215675400000004 10.7772966700000001  4.2684865199999997
  6.1438262000000003 13.2152889600000005  6.1994239499999999
  6.6513973799999997 14.5086989299999995  8.3375771600000004
  6.5839629700000000 17.0824248599999997 11.0429315799999994
  6.2381324800000000 18.8470161000000012 12.8159380600000006
  6.5416618099999999  0.2451582900000000 14.8515591899999997
  6.7310238399999998  2.2798451499999999 16.9748564100000010
  6.3264257500000003  3.9418797200000002 18.6415302300000008
  8.3062050400000000  6.1897569199999998  2.0586816500000000
  8.3828967999999993  8.2032923100000001  4.7557658800000002
  7.9219890299999998 10.6285092599999995  6.2551212400000002
  8.2229563599999995 13.3015343900000005  8.5497729699999994
  8.4330486100000002 14.8319839400000006 10.9275243799999995
  8.2955746900000005 16.8590702400000012 12.4896887400000001
  8.3455418500000000 18.6378480300000007 14.9451760100000008
  8.6394402400000008  0.2554473300000000 16.9158700800000013
  8.6745683299999996  2.9297409900000000 18.9992333299999991
  8.3823861100000006  4.8163452900000001 21.2812493899999993
 10.4231906700000003  5.8436597099999998  4.5070892899999997
 10.5772917500000005  8.4859764500000008  6.6712513400000004
 10.3442358199999997 10.9358339900000008  8.3303118299999994
 10.5150616499999998 12.8988339399999994 10.6289447599999995
 10.5368525599999998 14.6087529800000002 12.9123874300000008
 10.2085423300000002 16.7316193800000015 14.4106710600000003
 10.6126064200000005 18.9080412100000004 16.9940570700000002
 10.3011004400000008  0.6007291600000000 18.8473197799999994
 10.7009569100000004  2.6727827799999999 -0.3066357200000000
 10.4200918399999996  4.1922734300000002  2.1862268999999999
 12.5809543399999999  6.2762837200000003  6.3062139200000003
 12.4484300799999996  8.7544322000000001  8.2539664800000008
 12.5890651099999999 10.5210574900000005 10.3607599599999993
 12.8758544399999995 12.7877633300000006 12.5846961900000007
 12.6031247200000003 14.8284444099999995 14.6396373299999993
 12.5835212700000003 16.5342933899999984 17.1438153200000016
 12.4796191600000004 19.7081553099999987 18.6724938400000013
 13.0829543000000008  0.5691299600000000  0.1287611300000000
 12.0777950700000005  2.7635438899999998  2.2423461400000000
 13.0775841699999997  3.8763563200000002  4.6240353199999999
 14.6343471600000008  6.6503460800000003  8.1651711900000006
 14.5530723200000001  8.4551052700000007 10.5659509299999996
 14.8599206899999992 10.8295885799999994 12.2305015099999999
 14.7334074000000008 12.5656696799999992 14.8496942399999998
 14.7200308999999994 14.2843386599999995 16.6659410200000018
 14.5353110300000008 16.8484945900000014 18.5803064099999986
 14.5175100599999993 18.9024026999999997  0.4190862200000000
 14.5986926799999992  0.4687441700000000  2.3189013100000002
 14.9822685300000007  2.0044849600000001  4.3242129499999997
 15.1122317600000002  4.1809079799999997  6.1407931299999996
 16.8187756099999994  6.3370463199999998 10.5667525799999993
 17.1457214600000007  8.9690970799999992 11.9854036500000003
 17.1652219200000005 10.2867874700000002 14.7341728300000003
 17.0829197000000015 12.4390928699999996 16.6622750000000011
 16.3603525500000018 14.6138812199999997 19.3612390199999993
 16.6583830599999985 16.9569169100000003 -0.1513800900000000
 16.3591178299999989 19.1478650899999998  2.0642186800000002
 16.8564425500000006 -0.2442621900000000  4.0501465999999997
 17.1184559900000011  1.7160427000000000  5.8941436500000002
 16.6879397199999993  4.3517817799999996  8.0897534800000006
 19.1970439100000014  6.6008011800000004 12.7729682300000000
 19.0193162700000009  8.3650135500000005 14.2909079800000001
 19.3659688299999999 10.3793907900000004 16.6005907499999985
 18.7377875500000002 12.2422778599999997 19.1129478199999987
 18.4593777900000013 14.4699776599999996  0.0019788600000000
 18.9251795700000010 16.7729421499999987  1.7653103900000000
 19.3089326600000000 19.1006684000000000  3.9720977099999999
 19.1752253999999986 -0.0712861500000000  6.1532181599999998
 19.1253266099999983  2.0345749299999998  8.7079763499999991
 18.8845743199999987  4.1997544700000002 10.5343353799999999
  0.0779017900000000  6.1535229899999999 14.5985872299999997
  0.0462266400000000  8.1618490099999992 16.6370727999999986
 -0.3371035400000000  9.9729240200000007 18.8033066099999999
 -0.6762063500000000 12.2402478400000003  0.2880778200000000
 -0.2070326900000000 14.5095541200000007  2.0272565199999999
  0.3360711200000000 17.1870712499999989  4.0509528899999996
  0.1210038000000000 18.9940126499999984  6.2210762900000001
  0.0629550800000000 -0.1537213500000000  8.7596461899999998
 -0.2737534500000000  1.8163453599999999 10.4908006999999994
 -0.2489420400000000  4.0321794999999998 12.0609346599999991
  2.6029824600000002  6.0088821100000001 16.4153795900000006
  2.0089690199999999  8.8016787300000008 18.4769321899999994
  1.4853913299999999 10.2337133799999993 -0.2294298500000000
  1.9925345299999999 12.4207012900000002  1.9795357600000001
  2.0038824100000001 14.9913206399999996  3.9221974799999999
  2.7012965499999999 17.2447880399999995  6.2120176799999998
  2.0443821799999999 18.5639009799999997  8.5985145299999992
  2.1807885800000002 -0.5067358100000000 10.5270088499999996
  2.0230224500000000  1.5716148100000000 12.7642845900000008
  1.7396129800000000  3.9234187600000001 14.4124366500000001
  4.4047438100000003  6.2118730600000003 18.7200807299999994
  4.4464135499999999  8.6436750399999998 21.2463538199999995
  4.4568355400000002 10.5463691500000003  2.0995020499999999
  4.2213280299999996 13.1467754299999999  4.0038343500000000
  4.3602571899999996 15.6188657699999993  6.2203351099999997
  4.5002352300000004 17.0338327700000001  8.8482473200000005
  4.2930236199999996 18.6034763100000013 10.6824404200000007
  4.3076305399999999 -0.2647709300000000 12.7997006399999993
  4.2951165199999997  2.4181823400000000 15.0586461099999998
  4.2998932200000004  3.4987559400000001 16.8286959899999999
  8.1349222399999999  8.1103886400000000 -0.5531657400000000
  8.8029899100000009 10.0307867799999997  2.2955447200000001
  8.3465772000000005 12.8758746399999993  3.9451325599999998
  8.6732229200000006 15.3239403799999998  6.1944251899999996
  8.3567126799999993 17.0190016899999996  8.6754906799999993
  8.4705100099999999 18.5063356600000013 10.4408883400000008
  8.5069281500000002 -0.5149974800000000 12.9625834500000003
  8.7160110199999998  2.8137302300000000 14.7691396099999999
  8.6222179099999998  4.2416459099999999 16.7986970100000015
  8.2867999099999992  6.5175305200000002 18.6089142099999982
 10.1385320199999995  8.2901563599999992  1.9981956299999999
 10.7067071200000008  9.9504648699999994  4.0106726300000002
 10.1975128300000009 12.5336637199999998  6.1537628700000004
 10.6148291300000004 15.1095412400000004  8.1859640099999993
 10.4397099499999992 16.4811434400000003 10.0985874700000000
 10.3831490300000002 19.0112687499999993 12.8057729499999997
 10.3339433799999991 -0.4545930200000000 14.9977521800000009
 10.9111740899999994  2.1449536700000000 16.8700742699999999
 11.0212619699999994  4.8333209200000002 18.7884175499999984
 10.6353832399999995  6.3079003199999999 20.7645171600000005
 12.2936573100000004  8.0326992599999993  3.9060938900000002
 12.6372180800000002 10.5528451000000008  6.7333234099999997
 12.3613680200000005 12.6448873699999993  8.4660482899999998
 12.6909112700000009 15.2309537200000005 10.6247693900000009
 12.0642380800000009 16.5495595000000009 12.8219507999999998
 12.8857921799999993 18.8595131800000004 15.2194479999999999
 12.9048788900000009  0.2662044000000000 16.4946479900000007
 12.8576198599999998  2.3212324999999998 19.2622156800000006
 12.9702025200000008  5.0723094599999996  0.0893299800000000
 12.4359690300000008  6.0305249400000003  2.3531045800000001
 14.2334845199999993  8.7433736700000004  6.6518792700000002
 14.7927087099999994 10.7468216600000002  8.4732356699999993
 14.6778169100000007 12.5870481000000005 10.2433270400000005
 14.8548736800000007 14.7262292800000001 12.5472029500000009
 14.8203362999999992 16.6332381100000006 15.3358916900000004
 14.7960318300000004 19.1064168999999993 16.9681608399999995
 14.4937855500000001  0.3434044900000000 19.4497478199999989
 14.2907117699999997  2.7747843400000001  1.1275841600000001
 14.5963751300000002  4.2414667699999997  2.6141586999999999
 15.0580828100000002  6.6584805999999999  4.7519671099999998
 16.5334079199999984  9.0072594600000002  8.0532709800000006
 16.6809312299999988 10.6919484400000009  9.6282273899999993
 16.7297890000000002 12.3905741200000001 12.8518551300000006
 17.3170511299999994 14.4599762399999996 14.5962136099999995
 16.8360079099999993 16.8051594999999985 16.9085448199999995
 16.7433029100000006 19.0426394099999996 18.9629296600000004
 16.6760632599999994  0.2561806200000000  0.4461864300000000
 17.0999564100000008  2.7074316199999999  2.1962195200000001
 17.4194113000000002  4.8001530700000004  4.5724424800000003
 16.5162624499999993  7.1145030100000000  6.8174834400000002
 19.0618190699999985  8.7806523799999994 10.3658411200000007
 19.2474378199999983 10.7548356300000005 12.2584746899999999
 19.3688478199999992 12.8020610599999998 14.7456794099999993
 18.4129782800000008 14.3940834599999992 16.8245605900000008
 18.2459544800000018 16.6863105699999998 18.5415783900000015
 19.0377858800000013 18.8314719599999982  0.3084407900000000
 18.9262989799999986  0.1311640600000000  1.8146490099999999
 19.0280016200000013  2.0467160099999999  4.2675318799999999
 18.9394651699999983  4.0200582400000000  6.5750963499999999
 18.9276343599999990  6.7867763999999999  8.6835687000000004
 -0.2701399200000000  8.7840412200000006 12.2179363199999997
  0.0300064800000000 10.2631122099999992 14.7725890399999997
  0.1992929000000000 12.0364400899999993 16.9975478600000010
 -0.2143352600000000 14.4153714399999995 18.8798789199999995
 -0.6220164800000000 16.3506898199999995 -0.5349924200000000
 -0.0662925600000000 18.8963067900000006  1.7428859400000001
  0.0084609200000000  0.5061803100000000  3.6992182900000001
 -0.3640081500000000  1.7783781400000001  6.3410174599999998
  0.0718823700000000  4.4877182500000004  8.3201859000000002
  0.0423569200000000  6.0628753099999999 10.2192339299999997
  1.5149107300000000  8.1938795199999994 14.2407880500000008
  2.0351696300000000 10.0106177100000000 16.7403843300000013
  1.8459776299999999 12.4225254100000004 19.2218216300000009
  2.0884385499999998 14.3940036599999992  0.3732643800000000
  2.1484799300000001 17.0089580900000001  1.5660557700000000
  2.5508135500000000 19.1625246999999987  3.9752782600000001
  1.7120928300000000 -0.3974283800000000  6.4580543900000000
  1.8102134800000000  2.2901163599999999  8.4008446100000000
  2.2132212600000001  3.9846148399999999 10.7316965000000000
  1.8718485800000000  6.3212400000000004 12.2878570400000005
  3.7372546099999999  8.3185048300000002 16.4124104700000011
  4.4436908500000003 10.6817604399999997 19.0069944299999989
  4.4538900999999997 12.1853532300000005  0.0717680300000000
  3.7688822000000002 14.8875999500000002  1.6561848699999999
  4.5634090900000004 16.8067018200000007  3.7771011099999998
  4.3614858600000002 18.5941976599999990  6.2400736500000002
  4.0017760100000004 -0.1231221100000000  8.5071491899999998