Li                                      
   1.00000000000000     
    21.6499999999999986    0.0000000000000006    0.0000000000000000
     0.0000000000000006   21.6499999999999986    0.0000000000000000
    -0.0000000000000006   -0.0000000000000006   21.6499999999999986
   Li
   500
Direct
  0.0142819639722873  0.0118351228637437  0.9952164212471146
  0.0258207939953792  0.0866968115473412  0.0828808133949224
  0.0341982960739031  0.1960503491916867  0.2108420101616630
  0.0145591297921470  0.3080006411085421  0.3124533140877617
  0.0090442531177857  0.4113221256351025  0.3910747367205545
  0.9996080448036935  0.4977077986143215  0.4930794766743674
  0.9980529103926088  0.5991242355658173  0.5883637625866029
  0.0004874549653593  0.7243211926097004  0.6545747704387992
  0.9926750055427220  0.7965874009237908  0.7980341653579686
  0.9880763551963057  0.9072330762124707  0.8982813621247132
  0.1297811639722894  0.9785244471131662  0.0865952272517347
  0.1100310512702052  0.1065569496535801  0.1997513464203209
  0.1220741852193967  0.1988634309468793  0.3110514563510378
  0.1045098341801420  0.2873880023094699  0.4014563773672037
  0.1217248369515005  0.3833039630484976  0.5287491205542736
  0.0988403612009208  0.4945564919168604  0.5929820817551956
  0.1037594180138584  0.5864177565819872  0.6857236877598183
  0.0780000734411104  0.7018509071593542  0.7648099413394931
  0.0898569903002340  0.7717045062355652  0.8903236669745951
  0.0918150009237877  0.8874897071593537  0.0027927685912275
  0.2161936106235558  0.0009571016166277  0.2118183898383350
  0.2129793630484969  0.0999834715935322  0.2858349487297929
  0.2167267598152449  0.1858982586605080  0.4045329103926107
  0.2150307385681316  0.2853781103926067  0.5152244096997691
  0.2161374914549654  0.3676688609699781  0.6001543819861439
  0.2042438429561173  0.4768947002309503  0.6826786979214745
  0.2235521131639757  0.5932570614318706  0.7927076147806034
  0.2125759556581954  0.6740071113163992  0.8712337039260944
  0.2049972512702070  0.7824684591223985  0.9780351279445725
  0.2091257515011549  0.9077063616628180  0.0970723468822143
  0.3203593824480393  0.9943979533487308  0.2754353427251743
  0.2852261256351056  0.1166197976905323  0.3876732822170936
  0.3173402822170885  0.1842697787528849  0.4842159025404129
  0.2839497247113130  0.2718149030023085  0.6095811196304837
  0.3032414997690509  0.3982234281755197  0.7041424831408776
  0.2758338752886829  0.4831046882217080  0.7794224009237851
  0.3206721468822167  0.5913465648960710  0.8730722535796787
  0.3081571177829119  0.6903937565819831  0.9914250189376475
  0.2840892452655908  0.7868426937644344  0.0950649053117800
  0.3300666868360267  0.8723008933025369  0.1860948138568119
  0.3925618521939924  0.0306352531177794  0.3849010521939960
  0.4096535418013829  0.0920892812933047  0.4957468651270176
  0.3967392138568115  0.1925169528868338  0.5991492221709009
  0.3884602715935301  0.3051022623556605  0.6843170461893777
  0.4260006799076237  0.4069524674364899  0.7985238392609730
  0.3871132258660523  0.5081268623556596  0.8903009187066999
  0.4023163838337211  0.6102216133949199  0.9943840628175522
  0.4025369870669735  0.7011051376443405  0.0766604822170933
  0.3964781408775977  0.7800735260969986  0.2014871150115454
  0.4083097459584266  0.8726583237875261  0.3104213214780600
  0.5023016909930718  0.0150766780600478  0.4989366138568130
  0.5082459177829080  0.1089412812933048  0.6009077284064688
  0.5020878240184743  0.2211784304849900  0.6851190249422601
  0.5170125607390332  0.2927865020785205  0.7800802831408760
  0.5095372129330258  0.4080233986143185  0.8749678175519620
  0.5224471939953830  0.4960051487297932  0.0003555815242464
  0.5110525002309458  0.6120457893764453  0.0973573976905300
  0.5182921473441127  0.6858229427251743  0.2309410434180137
  0.5196657801385669  0.7846516628175522  0.3007301445727464
  0.4753040230946866  0.8913859898383407  0.4250184369515040
  0.6134719939953825  0.9848344577367172  0.5870710323325667
  0.5976650295611989  0.0633363316397251  0.7001254618937622
  0.5946098651270191  0.1633063053117780  0.8047570632794461
  0.5916378845265555  0.3156369505773640  0.8986707769053126
  0.5963497695150082  0.3858544203233265  0.9878615819861452
  0.6077133782909954  0.4944085182448035  0.1196194013856839
  0.6171095916859102  0.6159181787528851  0.2238169288683594
  0.6144848646651297  0.7104094004618915  0.3160848258660494
  0.5887677150115493  0.7732848757505764  0.4022209307159343
  0.6144842161662822  0.8743029547344108  0.4946119330254035
  0.7272247016166276  0.9802010374133943  0.6979451690531207
  0.7180600489607372  0.0678922480369550  0.8046009085450336
  0.6912322951501153  0.1929411616628158  0.9172726503464190
  0.6622559658198597  0.2637900207852226  0.9949594540415703
  0.7090743588914563  0.3688122849884508  0.1126190540415735
  0.6965710110854531  0.5033511131639727  0.2043791598152396
  0.7256487579676687  0.6113185145496516  0.3380512267898368
  0.7012827644341826  0.7146800508083118  0.4074900845265574
  0.7176306886836059  0.7954739542725164  0.4744874503464231
  0.7109769057736699  0.8790185168591194  0.5943170808314093
  0.8040714392609729  0.9735920655889174  0.8248112979214781
  0.8000436577367225  0.0839724244803719  0.8999658739029996
  0.8279338711316413  0.1913622374133936  0.0065721505773695
  0.8062095357967678  0.3105887912240206  0.1076963260969990
  0.8331054896073908  0.3959275625866070  0.1927082905311792
  0.7925806304849914  0.4983712434180134  0.3077994993071584
  0.7817052369515025  0.5908056480369481  0.4243743889145506
  0.8230638304849904  0.6969312969976897  0.5114564374133934
  0.8109006387990760  0.8215102628175543  0.6166151103926083
  0.8083176115473449  0.9003199593533466  0.7340396595842975
  0.9095218517321015  0.9940999224018441  0.9122427191685887
  0.9244176517320994  0.0853012263279425  0.0014727667436460
  0.9272157487297932  0.2291898244803718  0.1151561806004651
  0.9194357528868338  0.2744927953810645  0.2018107237875313
  0.8748031441108566  0.3770776475750566  0.3140420923787559
  0.8952872891454930  0.4902663237875302  0.3769890637413411
  0.8924726651270234  0.5758680092378725  0.4780740748267931
  0.8900385953810641  0.6985036854503477  0.5970472309468846
  0.9141619944572739  0.8003350041570414  0.6798694184757537
  0.9188136983833743  0.9178820762124715  0.7845432974595852
  0.1082745344110876  0.0911476715935322  0.9936919205542694
  0.0745766355658191  0.2071258655889139  0.1043914702078510
  0.0963605473441120  0.3155975593533498  0.2255741639722828
  0.1147431034641997  0.4152167709006918  0.3344595773672054
  0.1201323819861457  0.5039508073903036  0.4062745921478026
  0.0990927210161630  0.6016113154734413  0.5077445741339517
  0.1023297801385681  0.7286477030023093  0.5932277893764422
  0.0796735362586602  0.8239709690531214  0.6801544360277134
  0.0988061062355641  0.8911339667436522  0.8135544729792130
  0.1060884960739017  0.0040989219399563  0.8849362230946909
  0.2025383796766747  0.1156255381062365  0.1049638674364886
  0.2025722207852212  0.2174728000000030  0.2043541307159344
  0.2092894323325609  0.3101712572748241  0.3083012660508118
  0.1992566969976934  0.3831547815242473  0.4403428406466503
  0.2126846073903010  0.4937815163972274  0.5212640175519638
  0.1819890013856806  0.6034377967667410  0.5834241838337206
  0.1843828891454962  0.7249363575057757  0.6878519205542730
  0.1863620979214815  0.7986614258660509  0.8031594221709000
  0.2202397182448053  0.8748647653579695  0.8891611556582006
  0.2132244115473441  0.0109039103926065  0.0066322840646649
  0.3115771353348720  0.0820620263279466  0.1889385371824446
  0.3046106406466507  0.2088874669745948  0.2952273256351035
  0.3289158277136224  0.2986978175519610  0.4043654323325612
  0.3164593339491901  0.4191651625866086  0.5109763247113150
  0.2964013588914582  0.4896735893764443  0.5857611228637438
  0.2583355256351041  0.5872169782909964  0.6683940503464214
  0.2984004277136236  0.6872038180138560  0.7777472023094703
  0.3201070420323333  0.7564509949191702  0.8829469538106238
  0.3220519274826756  0.8981293284064691  0.0028896115473458
  0.2674341334872992  0.0012309528868357  0.1020857459584263
  0.4138544346420332  0.1129385311778321  0.2852959025404189
  0.4071313852194010  0.1934232900692834  0.3995488110854524
  0.4027981357967647  0.2937000221709027  0.5124975131639715
  0.3915948494226313  0.3785472586605110  0.5993965353348756
  0.3868262706697436  0.5100413404157038  0.6904624263279473
  0.3586740036951497  0.6150674914549654  0.7630089219399565
  0.3981927168591213  0.7193955792147833  0.9116762240184784
  0.4030813367205539  0.7962111667436460  0.0012264609699741
  0.3974110193995415  0.9156390295611985  0.0805845048498810
  0.3968788092378759  0.0023644845265594  0.2091997681293307
  0.5231114277136228  0.1062256046189347  0.3661510637413414
  0.4980250637413377  0.1944005260969988  0.5008602332563541
  0.4982789482678953  0.2888249861431902  0.6040432254041548
  0.4781940600461922  0.4030725810623537  0.6909252669745953
  0.4812382448036985  0.5157462960738997  0.8000470355658180
  0.4691382212471140  0.5906785408775974  0.8685086452655923
  0.4828612092378748  0.7069975732101597  0.9875970018475755
  0.5050944965357971  0.7834717967667402  0.0882962244803664
  0.4839538785219375  0.8608080332563475  0.2086044702078524
  0.4665581473441094  0.9703655879907629  0.3092815690531197
  0.6137800545034651  0.1331286027713645  0.4956822434180168
  0.5932594914549654  0.1977527782909902  0.6140526318706705
  0.6172845898383343  0.2987985898383343  0.6899632429561180
  0.5935360775981522  0.4113016808314072  0.8003250969976889
  0.5868930286374123  0.4717936069284079  0.8866690785219404
  0.5935178092378735  0.5876505958429590  0.9581618083140881
  0.6018928461893793  0.6550808642032351  0.0817192244803664
  0.5923437621247132  0.7912316771362597  0.1863371630484991
  0.5667763436489608  0.8952031177829127  0.3216111852193961
  0.5807253838337161  0.9989969191685901  0.3849937593533497
  0.7217336914549648  0.0784958960739033  0.6242171718244833
  0.7057976060046158  0.1655509713625847  0.7188370826789807
  0.6857104254041602  0.2765744628175497  0.8075260115473455
  0.7110946752886846  0.3804033870669770  0.9111478586605060
  0.6776646415704377  0.4754679672055460  0.9953066106235582
  0.6923330346420329  0.5753859297921480  0.0762456914549645
  0.7064251713625893  0.6947757496535800  0.2268411949191673
  0.6787518526558927  0.8148052817551985  0.3328535080831401
  0.7158604942263267  0.9099350064665117  0.4025347145496525
  0.6977252558891465  0.0046885981524269  0.5073549570438800
  0.8375592281755218  0.0926752087759795  0.6953827094688236
  0.8003142600461928  0.2061829219399556  0.8187611515011568
  0.8052754300230944  0.2878287487297939  0.9064321085450331
  0.7953442988452650  0.3660094863741321  0.0070256124711321
  0.7830275930715942  0.5000000457274822  0.0986804886836055
  0.8178648956120114  0.5838856877598175  0.1898558295612034
  0.7988369565819866  0.6849769478060068  0.3336638628175521
  0.8076637016166259  0.7861855131639715  0.3802946577367194
  0.8093826383371834  0.8974774452655865  0.4882177893764421
  0.8069015214780606  0.9982933214780587  0.5946888655889140
  0.9030175288683608  0.0919597307159350  0.8017157381062390
  0.9164037353348746  0.1912941727482647  0.8944746050808305
  0.9322337094688251  0.3291335755196272  0.0147708974595844
  0.9175524725173219  0.4220320868360261  0.1163204378752880
  0.9099865976905335  0.5072103431870687  0.2322540314087789
  0.8697758655889132  0.6301273168591237  0.3416605219399571
  0.9168237884526533  0.7077850452655881  0.4220470475750560
  0.8951698642032326  0.8225296124711292  0.5073789958429558
  0.9063738420323304  0.9221365972286364  0.6077942581986164
  0.9211035468822146  0.0207158535796736  0.6871690207852197
  0.9947190983833707  0.0851616762124721  0.8889619265588919
  0.9983725870669744  0.2114028143187099  0.9956749228637420
  0.0056644563510417  0.3410063584295600  0.1089698591224035
  0.9776017473441101  0.4018806203233254  0.2168897861431844
  0.0013592023094660  0.5226347602771355  0.3227624101616655
  0.0163230572748247  0.6040990572748299  0.4007313307159350
  0.0059171071593553  0.7145826988452626  0.5074684600461907
  0.9994053353348704  0.8163558277136289  0.5733974300230926
  0.0128934521939925  0.9069776263279437  0.6798653473441121
  0.9939449270207845  0.9843038355658180  0.7901753413394914
  0.1751377796766747  0.2236402387990779  0.0007987339491891
  0.1668015870669777  0.3353690309468789  0.1089882152424977
  0.1995279584295631  0.4227554591223992  0.2515298004618955
  0.1924261297921461  0.5207512734411068  0.3360065357967699
  0.1952032406466486  0.6146430849884510  0.4252976581986161
  0.2016793893764444  0.7106282489607381  0.5171897131639724
  0.2181717210161693  0.8099074794457266  0.6138377311778314
  0.2060310281755164  0.9023073274826814  0.7189897224018509
  0.2027165297921485  0.0193856429561237  0.8074348323325609
  0.2038781159353320  0.1192515658198587  0.8876448004618922
  0.3004108868360262  0.2426864272517335  0.1139967727482656
  0.2905300669745969  0.3294178909930707  0.2085244096997698
  0.2866709889145511  0.3940996411085465  0.3084623362586569
  0.2901928212471105  0.5230564605080801  0.4030227357967675
  0.3034240674364881  0.6109630558891439  0.5120705815242488
  0.3074584429561185  0.7199132896073905  0.6040725256351038
  0.3063801824480379  0.8036608836027739  0.7176902595842947
  0.3030474983833713  0.9224823057736700  0.7871329533487312
  0.2936141635103908  0.0154106240184788  0.9052262018475759
  0.2709211681293269  0.1352272780600430  0.9941878041570433
  0.3799377140877596  0.2137020290993092  0.1984171935334871
  0.3941727187066988  0.3118502235565828  0.3275900854503462
  0.3962551815242463  0.4221584346420357  0.3867037782909932
  0.4150224757505754  0.5055677136258652  0.4884681856812918
  0.3904368434180157  0.6086092983833709  0.6264045561200930
  0.4016363381062362  0.7226381981524241  0.6682472397228665
  0.4034920632794439  0.8110005861431873  0.7828724794457287
  0.3872749187066944  0.9028464018475759  0.9114392281755173
  0.4006182046189366  0.0164832272517330  0.9961786974595839
  0.3910564831408792  0.1005067648960747  0.1062608429561180
  0.4953435510392623  0.1949402217090039  0.2867610803695158
  0.5029785782909926  0.2893607473441122  0.3921632258660495
  0.4920301491916845  0.4079499187066986  0.4857650618937654
  0.4942663704388011  0.5028611224018462  0.6107140965357942
  0.4952252545034668  0.5913128591224037  0.7006391325635093
  0.4903268508083158  0.7159455519630455  0.7826047528868330
  0.4953774859122433  0.7854616577367182  0.9023972637413422
  0.4856559103926088  0.8901867598152435  0.9825992406466497
  0.5060662009237902  0.9781081436489600  0.0942595090069318
  0.4860303759815210  0.0870953367205516  0.1904614323325617
  0.6106119113163970  0.1987400000000008  0.3782814942263286
  0.6022092665127019  0.2664833177829067  0.5133862138568119
  0.5985824780600453  0.3921368997690564  0.6201457016166287
  0.6141292937644351  0.4923964046189369  0.7003390956120086
  0.5858483422632759  0.5983068785219388  0.8052112540415735
  0.5767354831408795  0.7126137242494224  0.8899060337182476
  0.6006088748267899  0.7942343528868392  0.9954722882217055
  0.5688607538106254  0.8782871695150121  0.0858747150115491
  0.5664836170900713  0.9834859145496537  0.1890184420323351
  0.6046271528868346  0.0874630822170914  0.2816552147805993
  0.7131129510392640  0.1863933699769049  0.5075894083140895
  0.7093324531177814  0.2750841353348719  0.6122406886836060
  0.7091812605080818  0.3823424152424977  0.6888502281755180
  0.7055661695150093  0.4964905381062366  0.7996017279445695
  0.6935413856812929  0.5808690133949170  0.9120469773672042
  0.6877187750577392  0.6932780803695167  0.9905695593533466
  0.7024359685912245  0.7614674891454953  0.0937380665126994
  0.6907067025404174  0.8811573224018474  0.1860471200923755
  0.7056630803695185  0.9583373487297919  0.2510967108545046
  0.7229113344110871  0.0965484203233231  0.3824543168591248
  0.8160711879907652  0.1554311847575036  0.5953224106235595
  0.7870226886835994  0.2717619006928373  0.6994378826789855
  0.8100839769053110  0.3667181131639694  0.7987418420323351
  0.7960878840646686  0.4877330974595822  0.8833471441108571
  0.7811254882217114  0.5984926263279462  0.9933128646651284
  0.7844748683602774  0.6863605829099342  0.1067140614318731
  0.7942448101616648  0.7810685732101632  0.2139620919168621
  0.7952556651270228  0.9039206147806027  0.2878814581986120
  0.8039527191685920  0.0067064277136240  0.3858178184757506
  0.8047591491916890  0.0883171921478052  0.5055410655889148
  0.9136049810623561  0.2021551801385684  0.6875264337182472
  0.9179094660508085  0.3015494919168589  0.7681315307159338
  0.8952963838337169  0.4062446286374168  0.8797026591224011
  0.8910077990762133  0.4984380397228634  0.9883279376443426
  0.9053527718244823  0.5760067191685891  0.0931717062355659
  0.8905266660508104  0.6867737981524229  0.1986578406466535
  0.9159488882217062  0.7821291556581969  0.2801222406466479
  0.9101951999999969  0.9061029995381062  0.3982883916859095
  0.9011641464203208  0.0011752859122396  0.4938339274826760
  0.8967316203233224  0.0745957519630451  0.5940084665127046
  0.9871026956120090  0.2177438517321022  0.7842446189376417
  0.9937189588914563  0.3309603787528843  0.8868918993071588
  0.0005914281755182  0.4348556480369510  0.0263860184757476
  0.9864266877598169  0.4882414877598151  0.1111718988452637
  0.9703653482678973  0.5949442337182447  0.2195522651270210
  0.0167074628175499  0.6982661884526564  0.3059919653579684
  0.9817737898383356  0.8086149127020761  0.4168731288683603
  0.0015222909930728  0.9029173953810599  0.5236414360277166
  0.0148971893764411  0.0003095847575025  0.5826268863741362
  0.0012141094688189  0.1096749672055424  0.6915659228637381
  0.0812938018475720  0.2038058374133982  0.9027597792147830
  0.0718320563510417  0.3055031080831441  0.0170836424942280
  0.1050337842956139  0.4161357510392634  0.1404502189376444
  0.1023730674364884  0.4959231713625840  0.2282182877598160
  0.1038104378752891  0.6247405381062379  0.3118477339491932
  0.1065870170900709  0.7298402272517350  0.4079529307159362
  0.1077096586605109  0.8494956494226358  0.5147781103926121
  0.1290968041570437  0.8954749237875319  0.6221008110854527
  0.0946044096997696  0.0139562877598181  0.6994116351039281
  0.0839992000000009  0.1217654424942296  0.7970139990762135
  0.2924451348729775  0.3305504771362564  0.9898703048498874
  0.3022397242494250  0.4044913237875321  0.1158475321016184
  0.3181604004618919  0.5176323787528858  0.2109479002309484
  0.2938257565819882  0.6203405242494213  0.3088858198614304
  0.2844976180138588  0.7266184277136247  0.4103817200923814
  0.3010996757505779  0.8192428147806012  0.5259311270207832
  0.2788547755196333  0.9172345473441084  0.6110359861431860
  0.3123626785219429  0.0396983251732124  0.7070051431870681
  0.3116375986143183  0.1101368508083169  0.7977774013856802
  0.3126142655889126  0.2253910429561188  0.8785902618937627
  0.4214788369515006  0.3309368896073934  0.0795048725173189
  0.3882354674364876  0.4032738942263308  0.2205404849884545
  0.4134880845265556  0.5272679824480377  0.3111213468822172
  0.3915486577367204  0.6218231953810616  0.4214718494226304
  0.3882649459584329  0.7070806988452674  0.5266765588914524
  0.3983318304849917  0.8249681427251758  0.6088625344110881
  0.4158156411085443  0.8992347995381067  0.6952931371824462
  0.3928889080831439  0.0004799297921494  0.8020469150115446
  0.3907587903002323  0.1172300226327962  0.9035345972286351
  0.3986187039260969  0.2071819274826794  0.9955113722863729
  0.4940794646651270  0.2957374503464223  0.2392522193995390
  0.4892387274826788  0.4308816914549638  0.3201643441108573
  0.4951816933025412  0.5220018397228614  0.3999050581986126
  0.5041484406466523  0.6074669644341810  0.5088849168591238
  0.5037322595842966  0.7010964475750612  0.6039165478060013
  0.5199828166281790  0.7867512207852201  0.6745364494226322
  0.4804124748267924  0.8897082318706708  0.7840931949191656
  0.4883456184757478  0.9876601556581974  0.9164054498845289
  0.4992733256351016  0.0982282822170930  0.9880911561200918
  0.4877753450346418  0.1927262420323359  0.1118083916859121
  0.5994549806004628  0.3071757228637395  0.2784038290993038
  0.6086723986143170  0.4049633394919141  0.3987774512702060
  0.5966523732101621  0.5021632586605094  0.5172326933025388
  0.6080554979214767  0.6104117381062366  0.5979842526558912
  0.6068250845265624  0.6930371491916887  0.6884064235565788
  0.5959541450346393  0.7944003048498871  0.7811601796766752
  0.6061050489607425  0.9053634360277130  0.9026423006928397
  0.5948292905311803  0.0058261972286360  0.0102450489607406
  0.6095412600461927  0.0967628900692858  0.0932924087759801
  0.5807741357967657  0.1894136133949189  0.1740374457274854
  0.6861502337182444  0.2957777556582002  0.3729770914549633
  0.6896127316397198  0.3733529173210144  0.5069026050808318
  0.7035869427251740  0.4933374064665159  0.5929388637413382
  0.7117663445727516  0.5888108919168573  0.6805011635103924
  0.6995626623556603  0.6863901995381028  0.7937506882217065
  0.6929215039260939  0.7947963547344088  0.8904879441108520
  0.6943413418013833  0.8805511099307139  0.0313591916859153
  0.7103477251732073  0.9996592207852188  0.1177489903002282
  0.6909595265588919  0.0944941441108540  0.1804799468822154
  0.6914381588914580  0.2063693367205559  0.2691477413394949
  0.7831585196304829  0.2726695459584292  0.4962616240184730
  0.8001360332563507  0.3700984965357961  0.5744918623556572
  0.8312996046189411  0.4686326669745924  0.6937063408775970
  0.7887930720554266  0.5987116300230966  0.7873765667436459
  0.7943123418013869  0.6971564129330261  0.8811368845265619
  0.7864776752886868  0.7795508013856818  0.9832005972286382
  0.8241722558891453  0.8891196240184769  0.1026269713625894
  0.8037983376443449  0.9977852591224021  0.1936792757505756
  0.7868003274826805  0.0888318498845280  0.2865634258660492
  0.7676994272517348  0.2082178896073898  0.4058871053117770
  0.8960602531177813  0.2849878775981551  0.5943335519630466
  0.9059953321016181  0.3834644226327910  0.6877421094688216
  0.8952936660508115  0.5072541635103960  0.7851705256351025
  0.8911624859122398  0.6021107653579705  0.9107141307159381
  0.8938856928406480  0.6870242018475778  0.9905148517321010
  0.9064455168591223  0.7703916706697456  0.1023955648960708
  0.9224675732101630  0.9037421852194001  0.2068318346420313
  0.9141388429561204  0.0153717454965374  0.2977096729792166
  0.8803498055427283  0.1004172886836017  0.4102741510392605
  0.9065456642032359  0.1782479556582004  0.4721321182448008
  0.0152274623556607  0.3132741598152435  0.6837275681293278
  0.0042970452655879  0.4056601570438829  0.7669993852193997
  0.9949491879907626  0.4998981427251721  0.8795674702078529
  0.9972893413394885  0.5865422175519655  0.9879617251732071
  0.0074237949191698  0.6883365293302575  0.1034139228637443
  0.0101488457274854  0.7958265602771348  0.2049248092378733
  0.9926343168591245  0.9185217080831407  0.3050159879907639
  0.0039655357967661  0.0335424549653567  0.3939669177829117
  0.0188040083140848  0.0948273491916893  0.4984047279445747
  0.9796229136258674  0.1879087090069262  0.5988036877598120
  0.0844222812932998  0.2824381103926115  0.7769123528868391
  0.0856139953810597  0.4107780498845273  0.8955193390300238
  0.1292322554272545  0.5254442101616661  0.9983185847575058
  0.0959935039260955  0.5852123316397240  0.1097718244803687
  0.0892597062355662  0.6944647875288652  0.1964860318706698
  0.1056310438799102  0.8099312669745942  0.3041131311778287
  0.0970175307159380  0.9059795316397228  0.3898626411085431
  0.1040028572748284  0.9861246540415678  0.5083307039260987
  0.1143019043879931  0.1049450461893784  0.6034841616628199
  0.0907988364896042  0.1718907916859109  0.7000968909930734
  0.1699360448036984  0.3006021584295624  0.9228166424942259
  0.1786074508083146  0.4270371709006895  0.9896216290993038
  0.2401519806004586  0.4855755168591216  0.1263945782909914
  0.2082984318706664  0.5813813316397258  0.2115713020785250
  0.2075914535796741  0.6966655321016191  0.2985396503464202
  0.2108892628175525  0.8201326434180132  0.4060649057736754
  0.2110098392609672  0.9142375325635115  0.5027798073902972
  0.1994585838337173  0.0162406101616597  0.6202643584295586
  0.2029286461893776  0.0909304863741340  0.7386674937644315
  0.1904722032332558  0.2067392120092393  0.7983174096997701
  0.3802691681293311  0.4223715930715954  0.9755624050808294
  0.3499094161662839  0.5102543953810610  0.1103104101616594
  0.4117441307159382  0.5993088332563516  0.2113254923787551
  0.3711101852194005  0.7081125399538095  0.3111433145496534
  0.3998689330254024  0.7892768655889171  0.4042612859122414
  0.4067666397228606  0.9322264110854519  0.5220032669745933
  0.4192299607390311  0.0043401986143152  0.6302064845265605
  0.4121094434180108  0.1238836226327962  0.7188231371824472
  0.4389543986143210  0.2119155482678963  0.7905937006928383
  0.3862271533487274  0.3025341265588892  0.8846364568129346
  0.4746810110854511  0.4121408997690565  0.1315579704387986
  0.4868806872979192  0.5179087450346387  0.2196155986143182
  0.4880602060046186  0.6115477311778292  0.3214116900692829
  0.5006951967667419  0.6993407773672047  0.4013034526558883
  0.4930849616628166  0.7845732785219397  0.5181772942263265
  0.5206633219399563  0.9075392891454968  0.6010292217090054
  0.5044846618937626  0.0240822979214812  0.7286992124711347
  0.4763463011547344  0.1282675515011533  0.8219916341801365
  0.4915844133949179  0.2156533251732071  0.9107692060046162
  0.4894254369514996  0.3225893870669765  0.9817703639722879
  0.5819828706697479  0.4163545371824497  0.2059282193995386
  0.5960275468822189  0.5146180124711321  0.3103262632794426
  0.6240044489607399  0.6033543939953816  0.4228407986143168
  0.6176995321016179  0.7022965066974578  0.5058665570438805
  0.6213531713625855  0.7747523833718262  0.5871509704387989
  0.6079328757505778  0.8917092434180134  0.6817572184757523
  0.5959175288683625  0.0154613422632792  0.8129409117782913
  0.5917166531177855  0.1034364859122405  0.9068578734411119
  0.5929963907621243  0.2165362697459585  0.0173513796766755
  0.5513523907621263  0.3056258475750582  0.1301588558891424
  0.7213604928406454  0.4116505159353352  0.2825229866050805
  0.7037876323325634  0.4894156785219366  0.4286762937644326
  0.7054651976905291  0.5859720646651283  0.5258590060046160
  0.7102043648960716  0.6959770272517289  0.5976471593533503
  0.7207199214780573  0.8069616785219367  0.7193308258660522
  0.6682344314087771  0.9171045468822143  0.8134265718244791
  0.7055512207852175  0.9964142286374127  0.9229339847575062
  0.6890657136258653  0.0936262512702086  0.0110090073902995
  0.6944046087759830  0.2200705907621270  0.0951195884526541
  0.6676824702078505  0.2956328147806033  0.1866656794457242
  0.7780278785219394  0.3728273348729800  0.4211200817551983
  0.7898869533487272  0.4773188683602783  0.5193006355658198
  0.8093412697459570  0.5726240568129342  0.6156836517320983
  0.7917704471131657  0.7166415759815266  0.7168219769053152
  0.7859842771362580  0.8040849833718227  0.8130998535796792
  0.7893056041570432  0.9026855030023100  0.9055036207852183
  0.7939770434180105  0.9839869348729806  0.9886514120092400
  0.8236925020785222  0.1303440050808291  0.0819932429561234
  0.7763188443418017  0.2057584512702064  0.1871438378752899
  0.7937822919168624  0.2982101464203240  0.2711078235565836
  0.8790513510392586  0.3929146812933055  0.4663666018475752
  0.9324013963048472  0.4900034133949163  0.5842393173210141
  0.8912755473441081  0.6134193875288716  0.7076423053117793
  0.8937099330254057  0.7080035953810651  0.7753846531177828
  0.8878081187066940  0.8133035588914552  0.8989724748267918
  0.9029532859122398  0.9016759491916844  0.0012234531177810
  0.8825095926097006  0.9999999639722859  0.1054217745958397
  0.9146414217090069  0.1040213926097024  0.1899009593533521
  0.9084227219399565  0.1959774942263266  0.3058025639722857
  0.8882289200923807  0.2885264327944554  0.4017785307159372
  0.9826877376443406  0.3604190808314058  0.5822931593533482
  0.9838359903002285  0.4892730799076190  0.6783295242494205
  0.9770059672055424  0.6118052503464213  0.7452291196304870
  0.9738408803695151  0.6783689782909903  0.8797713080831429
  0.0012781376443414  0.7942531459584288  0.9966642438799056
  0.9794994198614333  0.8976539672055424  0.0649788392609665
  0.0320670734411053  0.9999823704388007  0.1564848351039245
  0.0297303861431857  0.0946335792147792  0.3144228318706723
  0.0042974424942273  0.1920202840646681  0.3835438692840683
  0.0055566697459568  0.3007317949191659  0.4926898558891466
  0.1018672836027719  0.4131606660508069  0.6786344489607359
  0.0785409898383378  0.5122623496535823  0.7794226521939933
  0.0801104351039257  0.6067342424942268  0.8640134461893751
  0.0823342170900716  0.6817899884526568  0.0026792018475774
  0.0833317205542699  0.8030904078521957  0.0950653057736730
  0.0952605852193997  0.8971587302540414  0.1728466050808279
  0.1125790217090099  0.9790323653579662  0.2714189588914522
  0.1301732000000015  0.1039889833718277  0.3991092803695153
  0.1010640489607368  0.1953865367205552  0.5049192946882215
  0.1011680475750580  0.2893695639722864  0.6011727648960772
  0.1701195399538094  0.4257182346420336  0.7915995344110840
  0.2011899570438800  0.5352031468822176  0.9004061672055457
  0.2034848771362618  0.6155361736720550  0.0127414896073930
  0.1920536041570458  0.7110076854503475  0.1215525210161630
  0.1992387473441113  0.7906217884526541  0.2215496877598184
  0.2119593718244772  0.9019043030023113  0.2815023307159379
  0.1943066956120063  0.0047394096997664  0.3825884161662785