Li 
 1.0000000000000000
    21.6499999999999986    0.0000000000000006    0.0000000000000000
     0.0000000000000006   21.6499999999999986    0.0000000000000000
    -0.0000000000000006   -0.0000000000000006   21.6499999999999986
 Li 
 500
Cartesian
  0.3092045200000000  0.2562304100000000 -0.1035644800000000
  0.5590201900000000  1.8769859700000000  1.7943696099999999
  0.7403931100000000  4.2444900600000004  4.5647295200000002
  0.3152051600000000  6.6682138799999997  6.7646142500000002
  0.1958080800000000  8.9051240200000006  8.4667680500000007
 -0.0084858300000000 10.7753738400000003 10.6751706700000000
 -0.0421544900000000 12.9710397000000004 12.7380754599999992
  0.0105534000000000 15.6815538199999995 14.1715437800000004
 -0.1585861300000000 17.2461172299999994 17.2774396800000005
 -0.2581469100000000 19.6415961000000010 19.4477914900000002
  2.8097622000000002 -0.4649457200000000  1.8747866700000000
  2.3821722599999999  2.3069579600000001  4.3246166500000003
  2.6429061100000002  4.3053932799999997  6.7342640300000003
  2.2626379100000000  6.2219502499999999  8.6915305699999994
  2.6353427200000001  8.2985308000000000 11.4474184599999997
  2.1398938200000002 10.7071480500000007 12.8380620699999994
  2.2463913999999998 12.6959444300000008 14.8459178400000003
  1.6887015900000000 15.1950721400000006 16.5581352300000013
  1.9454038400000000 16.7074025599999985 19.2755073900000014
  1.9877947700000000 19.2141521600000011 21.7104634400000016
  4.6805916700000001  0.0207212500000000  4.5858681399999996
  4.6110032099999998  2.1646421600000001  6.1883266399999997
  4.6921343499999999  4.0246972999999997  8.7581375099999992
  4.6554154900000002  6.1784360899999999 11.1546084699999994
  4.6793766899999998  7.9600308399999999 12.9933423700000006
  4.4218792000000002 10.3247702599999993 14.7799938100000006
  4.8399032499999999 12.8440153800000001 17.1621198600000007
  4.6022694399999997 14.5922539600000007 18.8622096900000003
  4.4381904900000002 16.9404421399999983 -0.4755394800000000
  4.5275725199999997 19.6518427299999985  2.1016163099999998
  6.9357806300000000 -0.1212843100000000  5.9631751700000004
  6.1751456200000003  2.5248186200000000  8.3931265600000007
  6.8704171100000000  3.9894407099999998 10.4832742900000007
  6.1475115400000000  5.8847926499999996 13.1974312400000002
  6.5651784700000002  8.6215372200000004 15.2446847600000002
  5.9718033999999998 10.4592165000000001 16.8744949800000015
  6.9425519800000002 12.8026531299999995 18.9020142900000003
  6.6716015999999998 14.9470248300000002 -0.1856483400000000
  6.1505321600000000 17.0351443200000006  2.0581551999999999
  7.1459437699999997 18.8853143400000008  4.0289527200000004
  8.4989641000000002  0.6632532300000000  8.3331077800000006
  8.8689991799999994  1.9937329399999999 10.7329196299999996
  8.5894039800000002  4.1679920299999997 12.9715806600000008
  8.4101648800000000  6.6054639799999997 14.8154640499999992
  9.2229147200000003  8.8105209200000001 17.2880411199999990
  8.3810013399999992 11.0009465700000000 19.2750148900000013
  8.7101497099999996 13.2112979300000006 -0.1215850400000000
  8.7149257700000007 15.1789262300000001  1.6596994400000000
  8.5837517499999993 16.8885918400000001  4.3621960399999997
  8.8399059999999992 18.8930527099999992  6.7206216100000002
 10.8748316099999993  0.3264100800000000 10.8019776899999993
 11.0035241199999998  2.3585787400000000 13.0096523200000007
 10.8702013900000001  4.7885130199999999 14.8328268899999998
 11.1933219400000006  6.3388277700000000 16.8887381300000001
 11.0314806599999997  8.8337065799999994 18.9430532499999984
 11.3109817499999998 10.7385114700000006  0.0076983400000000
 11.0642866299999998 13.2507913399999993  2.1077876600000001
 11.2210249900000001 14.8480667099999994  4.9998735900000000
 11.2507641399999994 16.9877085000000001  6.5108076300000004
 10.2903321000000005 19.2985066799999991  9.2016491600000005
 13.2816686700000002 -0.3283339900000000 12.7100878500000007
 12.9394478900000003  1.3712315799999999 15.1577162500000000
 12.8733035800000000  3.5355815100000001 17.4229904200000014
 12.8089601999999996  6.8335399800000003 19.4562223199999984
 12.9109725100000006  8.3537482000000001 -0.2627967500000000
 13.1569946400000006 10.7039444199999991  2.5897600399999998
 13.3604226599999993 13.3346285699999996  4.8456365100000003
 13.3035973199999997 15.3803635199999995  6.8432364799999998
 12.7468210299999996 16.7416175600000017  8.7080831500000002
 13.3035832799999998 18.9286589700000007 10.7083483499999996
 15.7444147900000004 -0.4286475400000000 15.1105129100000006
 15.5460000600000008  1.4698671699999999 17.4196096699999998
 14.9651791900000006  4.1771761500000002 19.8589528800000004
 14.3378416600000005  5.7110539500000002 -0.1091278200000000
 15.3514598699999993  7.9847859699999999  2.4382025199999999
 15.0807623900000003 10.8975515999999999  4.4248088100000000
 15.7102956099999993 13.2350458399999997  7.3188090600000004
 15.1827718500000000 15.4728230999999994  8.8221603300000009
 15.5367044100000005 17.2220111100000004 10.2726533000000000
 15.3926500100000005 19.0307508900000002 12.8669647999999999
 17.4081466599999999 -0.5717317800000000 17.8571646000000008
 17.3209451899999998  1.8180029900000001 19.4842611699999999
 17.9247683100000010  4.1429924400000004  0.1422870600000000
 17.4544364499999993  6.7242473299999999  2.3316254600000001
 18.0367338500000010  8.5718317299999995  4.1721344900000004
 17.1593706499999996 10.7897374199999998  6.6638591600000003
 16.9239183799999999 12.7909422799999994  9.1877055199999997
 17.8193319300000006 15.0885625799999996 11.0730318699999994
 17.5559988300000001 17.7856971900000005 13.3497171399999992
 17.5000762899999991 19.4919271199999997 15.8919586299999995
 19.6911480899999987 -0.1277366800000000 19.7500548699999996
 20.0136421599999998  1.8467715499999999 21.6818853999999988
 20.0742209600000017  4.9619597000000004  2.4931313099999999
 19.9057840500000012  5.9427690200000001  4.3692021700000003
 18.9394880699999995  8.1637310700000008  6.7990113000000001
 19.3829698099999987 10.6142659100000003  8.1618132299999999
 19.3220331999999999 12.4675423999999992 10.3503037199999994
 19.2693355900000007 15.1226047900000005 12.9260725500000007
 19.7916071799999997 17.3272528399999999 14.7191729099999993
 19.8923165699999984 19.8721469500000012 16.9853623899999988
  2.3441436699999998  1.9733470900000001 -0.1365699200000000
  1.6145841599999999  4.4842749900000003  2.2600753299999998
  2.0862058499999998  6.8326871599999999  4.8836806499999996
  2.4841881899999998  8.9894430900000000  7.2410498499999996
  2.6008660699999999 10.9105349799999995  8.7958449200000004
  2.1453574099999999 13.0248849799999995 10.9926700299999993
  2.2154397399999999 15.7752227699999992 12.8433816400000005
  1.7249320600000000 17.8389714800000014 14.7253435400000008
  2.1391521999999998 19.2930503800000004 17.6134543400000005
  2.2968159400000001 21.7387416599999987 19.1588692300000005
  4.3849559200000003  2.5032928999999999  2.2724677299999998
  4.3856885800000001  4.7082861200000004  4.4242669299999999
  4.5311162100000004  6.7152077200000004  6.6747224100000002
  4.3139074900000001  8.2953010200000001  9.5334225000000004
  4.6046217499999997 10.6903698299999999 11.2853659799999999
  3.9400618800000000 13.0644282999999994 12.6311335800000002
  3.9918895499999998 15.6948721399999993 14.8919940799999999
  4.0347394200000002 17.2910198699999995 17.3884014899999997
  4.7681899000000003 18.9408221700000006 19.2503390199999984
  4.6163085099999996 21.8860696600000004 21.7935889500000002
  6.7456449799999998  1.7766428700000001  4.0905193300000002
  6.5948203699999999  4.5224136599999998  6.3916715999999996
  7.1210276700000001  6.4668077500000001  8.7545116099999998
  6.8513445800000001  9.0749257700000001 11.0626374300000005
  6.4170894199999999 10.6014332099999997 12.6817283100000004
  5.5929641300000004 12.7132475800000009 14.4707311900000004
  6.4603692600000002 14.8779626599999997 16.8382269300000011
  6.9303174600000004 16.3771640400000003 19.1158015500000005
  6.9724242299999997 19.4444999600000017  0.0625600900000000
  5.7899489900000001 21.6766501299999987  2.2101563999999998
  8.9599485100000003  2.4451192000000002  6.1766562900000004
  8.8143944899999997  4.1876142300000003  8.6502317600000005
  8.7205796400000004  6.3586054799999996 11.0955711600000004
  8.4780284899999998  8.1955481500000005 12.9769349900000002
  8.3747887599999995 11.0423950200000007 14.9485115299999993
  7.7652921800000003 13.3162111900000006 16.5191431599999987
  8.6208723200000001 15.5749142900000006 19.7377902499999998
  8.7267109400000002 17.2379717600000006  0.0265528800000000
  8.6039485700000000 19.8235849900000005  1.7446545300000000
  8.5924262200000001 21.7011910899999982  4.5291749799999996
 11.3253624100000003  2.2997843400000000  7.9271705299999997
 10.7822426300000007  4.2087713899999999 10.8436240500000007
 10.7877392299999997  6.2530609500000001 13.0775358300000004
 10.3529014000000004  8.7265213799999994 14.9585320300000006
 10.4188080000000003 11.1659073099999997 17.3210183200000003
 10.1568424900000007 12.7881904100000003 18.8032121699999983
 10.4539451799999998 15.3064974599999992 -0.2685249100000000
 10.9352958499999993 16.9621643999999989  1.9116132600000000
 10.4776014699999998 18.6364939199999995  4.5162867799999997
 10.1009838900000002 21.0084149800000013  6.6959459700000004
 13.2883381800000002  2.8822342500000002 10.7315205700000007
 12.8440679899999992  4.2813476499999998 13.2942394799999999
 13.3642113699999996  6.4689894700000004 14.9377042099999997
 12.8500560799999999  8.9046813900000004 17.3270383499999987
 12.7062340700000007 10.2143315900000005 19.1963855499999987
 12.8496605699999993 12.7226353999999997 -0.9057968500000000
 13.0309801200000006 14.1825007099999993  1.7692212100000000
 12.8242424499999998 17.1301658100000012  4.0341995800000001
 12.2707078400000000 19.3811475000000009  6.9628821600000004
 12.5727045600000000 21.6282832999999997  8.3351148899999998
 15.6255344199999993  1.6994361499999999 13.5143017699999994
 15.2805181700000006  3.5841785300000000 15.5628228400000008
 14.8456307100000000  5.9878371200000000 17.4829381499999990
 15.3951997200000008  8.2357333300000004 19.7263511399999985
 14.6714394899999991 10.2938814900000004 -0.1016118800000000
 14.9890101999999992 12.4571053799999998  1.6507192200000000
 15.2941049600000003 15.0418949800000004  4.9111118700000000
 14.6949776100000005 17.6405343499999994  7.2062784500000001
 15.4983796999999992 19.7000928900000005  8.7148765699999995
 15.1057517899999993 21.7515081499999994 10.9842348199999993
 18.1331572899999998  2.0064182700000002 15.0550356599999997
 17.3268037300000017  4.4638602599999997 17.7261789299999997
 17.4342130600000011  6.2314924100000004 19.6242551499999998
 17.2192040700000000  7.9241053800000003  0.1521045100000000
 16.9525473899999994 10.8250009899999995  2.1364325800000001
 17.7067749899999995 12.6411251399999998  4.1103787100000000
 17.2948201099999999 14.8297509200000004  7.2238226299999999
 17.4859191400000000 17.0209163600000011  8.2333793400000008
 17.5231341200000017 19.4303866899999989 10.5699151400000009
 17.4694179399999996 21.6130504099999996 12.8750139400000005
 19.5503295000000001  1.9909281700000001 17.3571457299999992
 19.8401408699999990  4.1415188399999998 19.3653751999999990
 20.1828598100000001  7.1257419100000003  0.3197899300000000
 19.8650110300000016  9.1369946800000008  2.5183374800000000
 19.7012098400000006 10.9811039299999997  5.0282997800000002
 18.8306474900000005 13.6422564099999999  7.3969503000000003
 19.8492350199999983 15.3235462299999998  9.1373185800000005
 19.3804275600000011 17.8077661099999993 10.9847552600000000
 19.6229936800000004 19.9642573299999988 13.1587456899999999
 19.9418917899999997 22.0984982300000006 14.8772093000000005
 21.5356684799999982  1.8437502900000000 19.2460257100000014
 21.6147665099999990  4.5768709300000001 21.5563620799999995
 21.7726354800000017  7.3827876600000000  2.3591974499999999
 21.1650778300000013  8.7007154300000007  4.6956638699999997
 21.6794267299999994 11.3150425600000002  6.9878061799999998
 22.0033941900000016 13.0787445899999994  8.6758333099999998
 21.7781053699999987 15.4707154300000003 10.9866921600000005
 21.6371255100000006 17.6741036700000009 12.4140543599999997
 21.9291432399999984 19.6360656099999993 14.7190847700000003
 21.5189076700000008 21.3101780400000003 17.1072961399999990
  3.7917329299999998  4.8418111699999997  0.0172925900000000
  3.6112543600000002  7.2607395199999996  2.3595948600000001
  4.3197802999999997  9.1526556899999996  5.4456201799999997
  4.1660257100000004 11.2742650700000002  7.2745414999999998
  4.2261501600000004 13.3070227899999995  9.2076943000000000
  4.3663587799999997 15.3851015899999997 11.1971572899999998
  4.7234177600000002 17.5344969299999995 13.2895868799999999
  4.4605717599999997 19.5349536400000012 15.5661274899999995
  4.3888128699999998  0.4196991700000000 17.4809641199999994
  4.4139612100000001  2.5817964000000000 19.2175099299999985
  6.5038957000000002  5.2541611499999998  2.4680301299999998
  6.2899759499999996  7.1318973400000001  4.5145534700000001
  6.2064269100000002  8.5322572300000008  6.6782095799999999
  6.2826745800000001 11.3241723699999994  8.7254422300000005
  6.5691310600000001 13.2273501600000003 11.0863280900000003
  6.6564752900000004 15.5861227200000005 13.0781701800000008
  6.6331309500000000 17.3992581299999998 15.5379941200000005
  6.5609783400000001 19.9717419199999995 17.0414284400000007
  6.3567466399999999  0.3336400100000000 19.5981472699999983
  5.8654432900000000  2.9276705700000001 21.5241659600000013
  8.2256515100000005  4.6266489300000000  4.2957322400000004
  8.5338393600000000  6.7515573399999997  7.0923253500000003
  8.5789246800000001  9.1397301100000004  8.3721367999999998
  8.9852366000000004 10.9455410000000004 10.5753362200000005
  8.4529576599999992 13.1763913099999996 13.5616586399999992
  8.6954267200000004 15.6451169900000000 14.4675527400000004
  8.7356031699999992 17.5581626899999996 16.9491891800000012
  8.3845019900000004 19.5466246000000012 19.7326592900000009
  8.6733841300000005  0.3568618700000000 -0.0827312000000000
  8.4663728599999999  2.1759714600000000  2.3005472500000002
 10.7241878800000006  4.2204557999999999  6.2083773899999999
 10.8894862200000002  6.2646601799999999  8.4903338399999999
 10.6524527300000003  8.8321157400000008 10.5168135899999999
 10.7008669199999993 10.8869433000000004 13.2219601900000008
 10.7216267599999995 12.8019233999999997 15.1688372200000003
 10.6155763200000006 15.5002212000000004 16.9433928999999992
 10.7249225700000004 17.0052448900000002 19.5369007600000018
 10.5144504600000008 19.2725433499999994 -0.3767264400000000
 10.9563332500000001 -0.4739586900000000  2.0407183700000000
 10.5225576400000005  1.8856140400000001  4.1234900100000003
 13.2197478799999999  4.3027210000000000  8.1897943499999997
 13.0378306199999994  5.7693638299999996 11.1148115300000008
 12.9593106500000008  8.4897638799999999 13.4261544399999995
 13.2958992100000000 10.6603821599999993 15.1623414200000006
 12.6836166099999996 12.9533439200000000 17.4328236499999996
 12.4863232100000001 15.4280871299999998 19.2664656299999990
 13.0031821399999998 17.1951737400000013 -0.0980249600000000
 12.3158353199999997 19.0149172200000010  1.8591875800000000
 12.2643703100000003 -0.3575299500000000  4.0922492699999999
 13.0901778600000007  1.8935757300000000  6.0978354000000001
 15.4388953900000008  4.0354164600000004 10.9893106899999999
 15.3570476100000004  5.9555715300000003 13.2550109099999993
 15.3537742900000005  8.2777132899999994 14.9136074399999998
 15.2755075700000003 10.7490201499999998 17.3113774099999986
 15.0151710000000005 12.5758141400000003 19.7458170600000003
 14.8891114800000004 15.0094704399999994 -0.2041690400000000
 15.2077387200000000 16.4857711400000007  2.0294291400000000
 14.9538001099999995 19.0770560300000014  4.0279201499999999
 15.2776056899999997 -0.9019964000000000  5.4362437899999998
 15.6510303900000007  2.0902732999999998  8.2801359600000008
 17.6679412199999994  3.3650851500000001 12.8887301900000004
 17.0390412100000006  5.8836451500000004 15.1428301600000008
 17.5383181000000015  7.9394471500000003 17.2927608799999994
 17.2353026900000010 10.5594215600000005 19.1244656699999993
 16.9113668200000014 12.9573653600000007 -0.1447764800000000
 16.9838808999999991 14.8597066200000008  2.3103594300000001
 17.1954001400000003 16.9101346100000001  4.6322792899999996
 17.2172851499999986 19.5698813099999995  6.2326335700000000
 17.4055763699999986  0.1451941600000000  8.3529557699999994
 17.4230355800000005  1.9120672100000000 10.9449640699999993
 19.7795478399999993  4.3766596499999997 14.8849472899999995
 19.8727399399999989  6.5285465000000000 16.6300476400000008
 19.3831667100000011  8.7951962100000003 19.0455625700000013
 19.2903188499999985 10.7911835600000003 -0.2527001500000000
 19.6008875099999997 12.4705454699999994  2.0171674400000001
 19.2799023200000015 14.8686527300000009  4.3009422500000003
 19.8302934300000011 16.9330962199999995  6.0646465100000002
 19.7057260800000016 19.6171299400000017  8.6229436800000006
 19.5102037700000004  0.0254449400000000 10.6915045299999996
 19.4142395800000003  1.6149980300000000 12.8602833000000008
 -0.2792266400000000  4.7141543900000000 16.9788959999999989
 -0.1359845400000000  7.1652921999999997 19.2012096200000002
  0.0128044200000000  9.4146247800000005  0.5712573000000000
 -0.2938622100000000 10.5704282099999993  2.4068716100000001
 -0.6415902100000000 12.8805426599999997  4.7533065399999996
  0.3617165700000000 15.1174629800000009  6.6247260499999996
 -0.3945974500000000 17.5065128600000008  9.0253032399999995
  0.0329576000000000 19.5481616100000011 11.3368370899999995
  0.3225241500000000  0.0067025100000000 12.6138720899999992
  0.0262854700000000  2.3744630400000002 14.9724022300000001
  1.7600108100000000  4.4123963799999997 19.5447492199999999
  1.5551640200000001  6.6141422900000002 22.0198608600000014
  2.2739814300000001  9.0093390099999997  3.0407472400000000
  2.2163769100000001 10.7367366600000000  4.9409259299999997
  2.2474959800000001 13.5256326500000004  6.7515034399999996
  2.3076089199999998 15.8010409200000002  8.8321809499999997
  2.3319141100000000 18.3915808100000007 11.1449460899999995
  2.7949458100000002 19.3870320999999990 13.4684825600000000
  2.0481854700000000  0.3021536300000000 15.1422618999999994
  1.8185826800000000  2.6362218300000002 17.2553530799999990
  6.3314371700000001  7.1564178299999996 -0.2193079000000000
  6.5434900300000001  8.7572371600000007  2.5080990700000001
  6.8881726700000003 11.2067409999999992  4.5670220400000003
  6.3613276299999999 13.4303723500000007  6.6873779999999998
  6.1593734299999996 15.7312889600000005  8.8847642400000009
  6.5188079800000001 17.7366069400000015 11.3864088999999993
  6.0372058900000001 19.8581279500000001 13.2289291000000002
  6.7626519900000002  0.8594687400000000 15.3066613500000006
  6.7469540099999996  2.3844628200000000 17.2718807400000003
  6.7680988500000003  4.8797160799999997 19.0214791699999992
  9.1250168200000008  7.1647836600000003  1.7212804900000001
  8.4052978700000001  8.7308798099999994  4.7747014999999999
  8.9520170300000004 11.4153518199999997  6.7357771599999996
  8.4770284399999998 13.4624721800000007  9.1248655400000001
  8.4059360800000000 15.3082971299999997 11.4025475000000007
  8.6238841300000004 17.8605602899999987 13.1818738700000004
  9.0024086299999997 19.4684334099999994 15.0530964199999993
  8.5060448599999994  0.0103904800000000 17.3643157099999996
  8.4599278099999999  2.5380299900000001 19.5615240300000011
  8.6300949399999993  4.4854887300000001 21.5528212100000012
 10.6968204100000008  6.4027158000000002  5.1798105500000000
 10.5920184499999994  9.3285886199999997  6.9315580499999996
 10.7206836600000006 11.3013398299999999  8.6579445100000001
 10.9148137399999996 13.1516597799999992 11.0173584499999997
 10.9058034199999998 15.1787380899999995 13.0747932599999999
 11.2576279800000005 17.0331639300000006 14.6037141300000002
 10.4009300800000002 19.2621832200000007 16.9756176699999983
 10.5726826400000000 -0.2671576300000000 19.8401779900000008
 10.8092675000000007  2.1266423099999998 -0.2578264700000000
 10.5603362199999999  4.1725231400000000  2.4206516800000002
 12.9782003300000000  6.6503544000000003  6.0274428999999996
 13.1777574299999998  8.7674562999999992  8.6335318200000000
 12.9175238799999992 10.8718345500000009 11.1980878100000005
 13.1644015299999992 13.2154141299999992 12.9463590699999997
 13.1377630799999991 15.0042542799999996 14.9039990699999993
 12.9024072400000005 17.1987665999999990 16.9121178900000011
 13.1221743100000001 19.6011183899999999 19.5422058099999987
 12.8780541399999997  0.1261371700000000  0.2218053100000000
 13.1965682799999993  2.0949165700000001  2.0197806500000000
 12.5737600399999998  4.1008047300000001  3.7679106999999998
 14.8551525600000005  6.4035884100000002  8.0749540300000007
 14.9301156400000004  8.0830906599999999 10.9744413999999999
 15.2326573100000005 10.6807548499999996 12.8371264000000007
 15.4097413599999999 12.7477558099999992 14.7328501900000006
 15.1455316399999997 14.8603478199999994 17.1847023999999990
 15.0017505599999996 17.2073410799999991 19.2790639900000009
 15.0324900499999998 19.0639315300000014  0.6789265000000000
 15.3790282499999993 -0.0073778700000000  2.5492656400000002
 14.9592737499999995  2.0457982200000000  3.9073908500000001
 14.9696361400000004  4.4678961399999997  5.8270486000000004
 16.9553819499999996  5.9032956700000003 10.7440641600000006
 17.3229451200000000  8.0126324499999999 12.4377488199999995
 17.9976364400000008 10.1458972400000000 15.0187422799999997
 17.0773700099999992 12.9621067900000000 17.0467026699999984
 17.1968622000000018 15.0934363400000002 19.0766135500000011
 17.0272416699999987 16.8772748499999992 -0.3637070700000000
 17.8433293400000004 19.2494398599999990  2.2218739300000001
 17.4022340100000008 -0.0479491400000000  4.1931563199999999
 17.0342270900000017  1.9232095499999999  6.2040981700000000
 16.6206926000000017  4.5079173099999998  8.7874558300000007
 19.3997044800000005  6.1699875500000001 12.8673213999999998
 19.6147989400000000  8.3020047500000000 14.8896166700000006
 19.3831078699999999 10.9820526399999991 16.9989418800000003
 19.2936678199999996 13.0356980700000005 19.7169609299999991
 19.3526252499999991 14.8740739699999995 -0.2053534600000000
 19.6245454399999986 16.6789796700000004  2.2168639799999998
 19.9714229600000017 19.5660183100000005  4.4779092199999999
 19.7911059499999986  0.3327982900000000  6.4454144199999996
 19.0595732899999994  2.1740343000000002  8.8824353699999996
 19.6267136300000011  3.8590682400000000 10.2216603599999996
  0.3296745600000000  6.7823855599999998 14.8027018500000001
  0.0930310300000000  8.7825424000000005 16.6055366900000010
 -0.1093500800000000 10.8227947899999997 19.0426357300000006
 -0.0586857600000000 12.6986390100000008 -0.2606286500000000
  0.1607251600000000 14.9024858600000005  2.2389114299999999
  0.2197225100000000 17.2296450300000004  4.4366221200000000
 -0.1594670400000000 19.8859949799999995  6.6035961399999996
  0.0858538500000000  0.7261941500000000  8.5293837700000008
  0.4071067800000000  2.0530121100000001 10.7904623599999994
 -0.4411639200000000  4.0682235499999999 12.9640998399999994
  1.8277423900000001  6.1147850899999998 16.8201524400000011
  1.8535429999999999  8.8933447799999996 19.3879936899999983
  2.7978783300000001 11.3758671499999995 -0.0364026400000000
  2.0782593600000001 12.6698469800000009  2.3765600000000000
  1.9324726400000001 15.0351626500000002  4.2539225900000002
  2.2869120999999999 17.5350119299999996  6.5840492900000003
  2.1004295399999999 19.6144568600000007  8.4405261800000009
  2.2516618600000000 -0.3004012400000000 11.0053597399999994
  2.4746362300000002  2.2720602500000000 13.0654321000000007
  1.9657948100000000  3.7214356400000002 15.1570976900000005
  3.6791153699999999  6.5080367299999997 19.9789803100000007
  3.8668513099999999  9.2453547500000006 21.4253082699999986
  5.1992903799999999 10.5127099400000006  2.7364426200000000
  4.5096610500000001 12.5869058299999992  4.5805186899999999
  4.4943549699999998 15.0828087699999998  6.4633834300000004
  4.5657525400000001 17.7558717299999991  8.7913052100000009
  4.5683630199999996 19.7932425800000011 10.8851828299999998
  4.3182783400000000  0.3516092100000000 13.4287233599999993
  4.3934051900000002  1.9686450300000000 15.9921512400000001
  4.1237231999999997  4.4759039400000002 17.2835719200000000
  8.2328274900000000  9.1443449900000005 -0.5290739300000000
  7.5755388600000000 11.0470076600000002  2.3882203799999999
  8.9142604300000006 12.9750362399999997  4.5751969099999998
  8.0345355099999995 15.3306364899999998  6.7362527600000002
  8.6571624000000007 17.0878441400000014  8.7522568399999994
  8.8064977500000001 20.1827018000000002 11.3013707300000004
  9.0763286500000007  0.0939653000000000 13.6439703899999998
  8.9221694500000002  2.6820804300000001 15.5625209200000008
  9.5033627299999992  4.5879716200000003 17.1163536200000017
  8.3618178699999994  6.5498638400000004 19.1523792899999989
 10.2768438900000003  8.9228504799999993  2.8482300600000001
 10.5409668799999992 11.2127243300000004  4.7546777100000002
 10.5665034599999998 13.2400083800000008  6.9585630900000002
 10.8400510099999998 15.1407278299999994  8.6882197500000000
 10.6752894200000004 16.9860114799999984 11.2185384199999998
 11.2723609200000006 19.6482256100000008 13.0122826499999995
 10.9220929299999998  0.5213817500000000 15.7763379500000003
 10.3128974200000005  2.7769924900000000 17.7961188800000016
 10.6428025500000007  4.6688944899999996 19.7181533100000017
 10.5960607099999997  6.9840602299999999 21.2553283800000017
 12.5999291499999995  9.0140757300000001  4.4583459500000000
 12.9039963899999996 11.1414799700000007  6.7185636000000004
 13.5096963199999998 13.0626226299999999  9.1545032899999992
 13.3731948700000007 15.2047193699999994 10.9520109600000008
 13.4522961599999995 16.7733890999999993 12.7118185100000005
 13.1617467599999998 19.3055051199999994 14.7600437800000002
 12.9016145000000009  0.3347380600000000 17.6001707399999994
 12.8106655400000005  2.2393999199999999 19.6334729599999989
 12.8383718600000005  4.6880102399999997  0.3756573700000000
 11.9367792599999998  6.6167996000000002  2.8179392299999999
 15.6174546700000008  8.9122336700000009  6.1166226600000000
 15.2370022400000007 10.5958494400000003  9.2808417599999995
 15.2733215300000005 12.6862952000000000 11.3848474799999995
 15.3759245000000000 15.0679026399999998 12.9390610000000006
 15.6035862999999999 17.4707203399999997 15.5735123800000004
 14.4672754399999999 19.8553134399999998 17.6106852799999984
 15.2751839300000007 -0.0776319500000000 19.9815207699999995
 14.9182726999999993  2.0270083400000001  0.2383450100000000
 15.0338597800000002  4.7645282900000003  2.0593390899999999
 14.4553254800000008  6.4004504400000002  4.0413119599999998
 16.8443035700000010  8.0717117999999992  9.1172497700000008
 17.1010525400000013 10.3339534999999998 11.2428587600000007
 17.5222384899999994 12.3973108300000003 13.3295510600000000
 17.1418301799999995 15.5152901199999995 15.5191958000000003
 17.0165596000000008 17.4084398900000004 17.6036118299999984
 17.0884663299999993 19.5431411399999995 19.6041533900000005
 17.1896029900000009 -0.3466828600000000 -0.2456969300000000
 17.8329426700000013  2.8219477099999999  1.7751537100000001
 16.8073029799999993  4.4546704699999999  4.0516640900000001
 17.1853866199999992  6.4562496700000001  5.8694843800000003
 19.0314617499999983  8.5066028500000002 10.0968369300000003
 20.1864902300000004 10.6085738999999997 12.6487812200000000
 19.2961156000000003 13.2805297400000004 15.3204559099999997
 19.3488200500000005 15.3282778400000002 16.7870777400000009
 19.2210457699999999 17.6080220499999989 19.4627540799999998
 19.5489386399999994 19.5212843000000014  0.0264877600000000
 19.1063326800000013 -0.0000007800000000  2.2823814200000001
 19.8019867800000000  2.2520631500000001  4.1113557700000003
 19.6673519299999988  4.2429127500000003  6.6206255100000000
 19.2301561200000002  6.2465972699999996  8.6985051900000006
 -0.3748104800000000  7.8030730999999998 12.6066468999999994
 -0.3499508100000000 10.5927621799999994 14.6858342000000004
 -0.4978208100000000 13.2455836700000003 16.1342104400000004
 -0.5663449400000000 14.6866883799999997 19.0470488200000005
  0.0276716800000000 17.1955806100000004 -0.0722191200000000
 -0.4438375600000000 19.4342083899999984  1.4067918699999999
  0.6942521400000000 -0.0003816800000000  3.3878966799999999
  0.6436628599999999  2.0488169900000002  6.8072543100000003
  0.0930396300000000  4.1572391499999997  8.3037247700000005
  0.1203019000000000  6.5108433600000000 10.6667353800000004
  2.2054266899999999  8.9449284200000001 14.6924358200000000
  1.7004124300000001 11.0904798699999994 16.8745004200000004
  1.7343909200000001 13.1357963499999997 18.7058911099999996
  1.7825358000000000 14.7607532500000005  0.0580047200000000
  1.8041317500000000 17.3869073299999997  2.0581638700000000
  2.0623916699999998 19.4234865100000000  3.7421289999999998
  2.4373358199999999 -0.4539492900000000  5.8762204599999999
  2.8182497799999999  2.2513614899999999  8.6407159199999999
  2.1880366599999999  4.2301185200000004 10.9315027300000001
  2.1902882300000002  6.2648510599999998 13.0153903599999996
  3.6830880399999999  9.2167997800000006 17.1381299200000008
  4.3557625699999996 11.5871481299999992 19.4937935200000005
  4.4054475899999996 13.3263581599999998  0.2758532500000000
  4.1579605300000004 15.3933163900000007  2.6316120800000000
  4.3135188800000002 17.1169617199999990  4.7965507399999998
  4.5889204000000001 19.5262281599999987  6.0945254599999998
  4.2067399600000002  0.1026082200000000  8.2830392100000001