Li                                      
   1.00000000000000     
    21.0004999999999988    0.0000000000000000    0.0000000000000000
     0.0000000000000000   21.0004999999999988    0.0000000000000000
     0.0000000000000000    0.0000000000000000   21.0004999999999988
   Li
   500
Direct
  0.0188971881621853  0.0166081831384943  0.0043397238161020
  0.9938499778576713  0.1160807128401729  0.1001844732268253
  0.9980816537701500  0.2393797657198604  0.2024491264493733
  0.0050927668388852  0.3197587657436713  0.2749005204637953
  0.0158159639056237  0.3722201957096232  0.4039868960262822
  0.0257116921025684  0.4994540520463815  0.5025685259874777
  0.9974509730720698  0.5994147472679217  0.6158205023689902
  0.9979857617675805  0.6855349796433430  0.7132999085736031
  0.9873563210399752  0.8032708335515792  0.7760238260993759
  0.0105456865312732  0.8972070364991325  0.8849851794004877
  0.1267525992238276  0.0080246579843362  0.1107346358420003
  0.0778107568867412  0.1256709945001333  0.2093592652555927
  0.0881200699983324  0.2066531639722839  0.3007799485726537
  0.0933965453203527  0.2924966405561804  0.4173207371253085
  0.0890490826408907  0.4048097321492321  0.4974916601985697
  0.0980537149115506  0.5038264622270887  0.5937604980833768
  0.0778730225470810  0.6111392247803593  0.7181940972834013
  0.0886903221351858  0.6982225827956512  0.8177820023332742
  0.0864946467941223  0.7799925725577950  0.8762948615509174
  0.0784165500821388  0.8881326539844281  0.9826957410537815
  0.1789639884764682  0.0095856617699610  0.2047104983214680
  0.1967922058998610  0.1125424680364731  0.3083155510583069
  0.2092150596414371  0.2200943829908795  0.3957494302516622
  0.1874964829408796  0.3050268922168513  0.5052965877002933
  0.1956741968048377  0.3917601566629401  0.6162384333706328
  0.1804434727744564  0.5139322773267310  0.6941033484917014
  0.2090019237637222  0.6037630670698348  0.7885499788100248
  0.1937730925454133  0.6910781948048879  0.9044229665960302
  0.1986822485178905  0.7917146120330472  0.9831308506940317
  0.1527876031523050  0.8654303364205589  0.1087489345491761
  0.2898888631223073  0.9934628399323842  0.3072408628366006
  0.2991568367419788  0.0859396657222433  0.4036291083545649
  0.2906649817861506  0.2275085055117714  0.5089684069426923
  0.3296552843979939  0.3117025718435258  0.6165915463917528
  0.3268269155496313  0.3806716906740348  0.7078858250994031
  0.2999396761981856  0.4959859370014996  0.7714943282302826
  0.3108236880074315  0.5921273874431563  0.8784705445108472
  0.2903423399442886  0.7013960286659824  0.0001880645698904
  0.2939594628699282  0.7854545448917918  0.1179314644889402
  0.2620953005880793  0.8863089635961074  0.1859314359181923
  0.3828949472631606  0.9935918749553565  0.4057335658674788
  0.3926793285874126  0.1036629646913170  0.5114353648722627
  0.4240289731196896  0.2168069974524443  0.5914674617270990
  0.4029169315016290  0.3025225494631059  0.7137908030761153
  0.4281415485345619  0.4014134834884899  0.7819333815861498
  0.4105244775124390  0.4864615828194587  0.8847233751577335
  0.3940958091474016  0.5996652708268826  0.9947418999547608
  0.4106490502607087  0.6768150858312865  0.1016718873360176
  0.4058246451274954  0.7988394014428195  0.1997824313706786
  0.3852630280231395  0.8946734249184516  0.3001642108521239
  0.5136469588819281  0.0276967410299775  0.4812356305802226
  0.5094878745744182  0.0933568110283076  0.5871112402085643
  0.4989446036999112  0.1910008395038219  0.6826540891883539
  0.5127045870336389  0.2815633442060914  0.8091775533915850
  0.4871451455917750  0.3957462555653422  0.9353263550867865
  0.5094471507821225  0.5090021623294660  0.0194375991047835
  0.4986720359039083  0.5985501483297995  0.0993498326230338
  0.4905639965715096  0.7192332996833386  0.2216293807290270
  0.5047940906168904  0.7921497107211763  0.3076417790052588
  0.4999444860836633  0.8853967119830486  0.3851771381633782
  0.5930658903359429  0.9923427527916004  0.5708757467679320
  0.6143799628580240  0.1048688483607521  0.7067674574414866
  0.6006096473893479  0.1744363238970479  0.8282342958501019
  0.5997308954548686  0.2892444427513610  0.9273416047236935
  0.6063177852908268  0.3952035765815083  0.0353519468584054
  0.6042738739553855  0.5131947429823072  0.1042249789290750
  0.6197999233351581  0.6195592762077098  0.1948761434251551
  0.6042620047141725  0.6877731796861966  0.3098960324754145
  0.6056699935715812  0.8002755439156175  0.3611619209066461
  0.5726039084783707  0.9136857989095475  0.4700534087283614
  0.6651861179495739  0.0068159800957091  0.6871839237161055
  0.7000333877764788  0.1113151644008497  0.8173870750696395
  0.7236070322135220  0.2026667488869336  0.9459738577652885
  0.7043771357824795  0.2979119692388252  0.0406143915621087
  0.7243560948548833  0.4144764481798049  0.1295507954572486
  0.7091776933882556  0.5254556929596887  0.2159959496202504
  0.7214360896169154  0.6029347582200444  0.3032956853408280
  0.7261608952167791  0.6963558015285329  0.3916411185447970
  0.6839998995261993  0.8105196771505447  0.4941264369895961
  0.6896126273183967  0.8799781529011241  0.5767056341515655
  0.8101695726292206  0.9949883974191067  0.7775383376586262
  0.8131977229113616  0.1003914335372968  0.8829816009142633
  0.8064696407228382  0.2049009985476502  0.0036748848836936
  0.8284140315706736  0.2837411690197840  0.1025309964048446
  0.7919328087426507  0.4419026785076525  0.2198085145591762
  0.8090394900121396  0.4968005899859520  0.3181044703697538
  0.8119870617366232  0.5944772643508500  0.3952640322849490
  0.8093538630032597  0.6768989481202823  0.5048756129615981
  0.8034936701507078  0.7978029646913143  0.5789912759220002
  0.7911225508916431  0.9084161267588868  0.6847190990690706
  0.9148811494964377  0.0085462617556757  0.9173970405466534
  0.8974533053974909  0.1150008395038213  0.0083864736553920
  0.8989816218661488  0.2105004380848072  0.1079703254684432
  0.8772116478179086  0.3139907483155184  0.2217554682031349
  0.9025004547510775  0.4052522630413549  0.2990554543939439
  0.9046315725816072  0.4967428704078500  0.4146423837527706
  0.9014378886217003  0.5683753305873651  0.5106373562534259
  0.9145351344015609  0.6746124720840001  0.6232697854812983
  0.8894792604938004  0.7883497902430889  0.6849016032951596
  0.9038813171114981  0.9368370548320257  0.7735155539153808
  0.1125775029166007  0.1016426294612032  0.9885109321206613
  0.0724838065760309  0.2223914578224324  0.0984400095235856
  0.0869392619223319  0.3343346367943596  0.2045324782743236
  0.1266675969619797  0.4189465927001734  0.3033394114425860
  0.1024972776838666  0.4964133358729583  0.3838830713554415
  0.1137914616318625  0.5854037018166238  0.4987365786528883
  0.1090289116925760  0.6970724577986260  0.6186463074688717
  0.1043501726149358  0.7866991900192843  0.7018742034713483
  0.0885131858765291  0.9257316063903218  0.7744533644437013
  0.0779465960334278  0.0020902368991216  0.9117900997595285
  0.1984446879836170  0.1362898269088859  0.1134566357943854
  0.1834850322611388  0.2082642079950503  0.1997257322444739
  0.1993238856217729  0.3229639613342528  0.3099921568534114
  0.1985092583509882  0.3866361062831842  0.4209264046094106
  0.2090067698388154  0.5135162500892818  0.5033514759172419
  0.2038966815075867  0.6055031680198084  0.6129971486393160
  0.2010662108045054  0.6652088416942448  0.6938390495464404
  0.1898280474274401  0.7965482526606493  0.7925562048522679
  0.1823216237708607  0.9098948582176618  0.8810486707459333
  0.1752241118068625  0.9881314544891779  0.0073751267826978
  0.2921701626151787  0.1160853541582370  0.2012443660865202
  0.2757420294754880  0.2105385057498665  0.3105898640508542
  0.3144972386371734  0.3142771438775256  0.4045011890193067
  0.3195190247851230  0.3730904664174659  0.5249060417609073
  0.3117123597057230  0.4999607371253063  0.5953706221280441
  0.3361759148591688  0.5774268841218060  0.7135725192257354
  0.2974310478321911  0.6947254503464180  0.8141009866431759
  0.2869012799695270  0.7825393595390580  0.8824546501273787
  0.2759424666079369  0.8893635999142901  0.9929102026142260
  0.2574163548486936  0.9928392233518224  0.1201393476345771
  0.3744357005785588  0.0698001404728430  0.2880938172900613
  0.3848377000547600  0.1940744939406187  0.3944826346991732
  0.4089599361919980  0.2780349439299030  0.4618088278850507
  0.4299421866146034  0.4094911283064704  0.5914804590366884
  0.4325809595009673  0.4765559824766044  0.6966270655460605
  0.4182588671698326  0.6098853917763876  0.8016513392538300
  0.3959342401371373  0.7152974324420853  0.9107272674460134
  0.3678766334134878  0.8272276293421612  0.0225627323158974
  0.3752685126544577  0.9066953624913694  0.1186441641865699
  0.3863899069069774  0.9993793195400116  0.2004024389895491
  0.4778273188733593  0.0902655489155038  0.3765676726744616
  0.5006400104759408  0.1844826561272370  0.4779846736982449
  0.4950849703578513  0.3165552010666417  0.5914213447298877
  0.5086370824504201  0.3778831775433886  0.6980357396252472
  0.5049517606723626  0.4875839951429697  0.7920280540939473
  0.4894659246208448  0.5863125073212530  0.9118674460131899
  0.4893084707506929  0.6995021709006934  0.9706003523725641
  0.4861619304302280  0.7870844617985284  0.0886257412918710
  0.5007937672912561  0.8763451265446065  0.1802327949334526
  0.4947261046165536  0.9783324254184436  0.2989793543010890
  0.6075521739958560  0.0846509702149945  0.4936171157829605
  0.5618443018023385  0.2021362510416438  0.5818467931715929
  0.5887613656817692  0.2787655417728132  0.7035032284945615
  0.6012133363491330  0.4111392228756472  0.8090972233994407
  0.5959749139306183  0.4811122954215392  0.9313150205947451
  0.5891434851551125  0.6090916378181461  0.0045642694221542
  0.5848780533796827  0.6942525225589833  0.1059006571272079
  0.6090443294207262  0.7763768824551818  0.1973625099402412
  0.6023361300921408  0.9027137039594280  0.2681427823147047
  0.6069128592176369  0.9764127011261650  0.3932884574176825
  0.6896804266565084  0.0911837670531668  0.6005399123830415
  0.6948048646460805  0.1870019823337543  0.6871061455679595
  0.6572958972405445  0.2679347029832613  0.7814186357467676
  0.7078218885264604  0.4051073560153355  0.8896705364157995
  0.6887751924954202  0.4881725577962399  0.0132658965262706
  0.7028493540629981  0.5852964943691816  0.1119828265993661
  0.7257295107259338  0.6977284031332616  0.1999993671579219
  0.7211078374324416  0.7989065569867364  0.2965140739506182
  0.6915055617723382  0.8954051051165450  0.3875614952024975
  0.7110374191090685  0.9915787666960298  0.4837649889288329
  0.7836095707245079  0.0924415632961129  0.7068401914240141
  0.8027614509178349  0.1928666469845979  0.7664759200971432
  0.7697511154496297  0.3018430737363431  0.8857320706649858
  0.7920662679459980  0.4049573462536600  0.0234189628818342
  0.7977611533058706  0.5197449370253082  0.1019877398157192
  0.8178722368515068  0.6035981609961638  0.2152118344801295
  0.8199629237399080  0.7227626470798327  0.2956603742767996
  0.8378410237851455  0.7969197414347278  0.4250858770029282
  0.8170023670864950  0.9054985052736839  0.4888188705030814
  0.7801971267350751  0.9957176291040710  0.5877277260065270
  0.9000836165805595  0.0759200885693190  0.8043922149472635
  0.8825202761839037  0.2156062636603906  0.8843216399609517
  0.9109400357134376  0.3235771648294090  0.9882664103235612
  0.9008543115640109  0.4281915411537796  0.1049659827146954
  0.9065171110211665  0.5153529573105402  0.1984930744506102
  0.8867147653627327  0.5837009366443624  0.3168567357920082
  0.9212585357491463  0.7095623147067940  0.4178603776100545
  0.9251648041713310  0.7869110183090910  0.5183041441870415
  0.8947760791409749  0.9157313487774132  0.5954694997738130
  0.8859608352182065  0.0032953896335783  0.6570240822837548
  0.9890567729339779  0.1112142839456212  0.8926779124306563
  0.9846666931739705  0.2109238346706022  0.0095943939430043
  0.9732337515773466  0.3126996061998497  0.1166192509702171
  0.0047817847194125  0.4231030184995603  0.1756319254303449
  0.9946742201376182  0.4783462550891642  0.3287579952858266
  0.0106054455846305  0.6077327868384117  0.3998045413204423
  0.0328560572367351  0.7009617904335599  0.4998001128544587
  0.9994154201090453  0.7932347086974119  0.6164716601985631
  0.0050687459822356  0.9024984538463343  0.6962076655317730
  0.0002067979333802  0.0208195271541172  0.7945030223089944
  0.1896420428085079  0.1975032875407763  0.0045734672983997
  0.1976171434013452  0.3017808333134937  0.0828471864955631
  0.1950494126330327  0.3944142229946905  0.1803665055593910
  0.2067056065331769  0.5217091516868635  0.2880966634127731
  0.2031392819218567  0.6104389214542536  0.3749170657841461
  0.1799016347229809  0.6990918359086677  0.5142001709483139
  0.2012430208804545  0.8107632542082328  0.6383607004595149
  0.2232326506511768  0.9041769881669453  0.7073538430037374
  0.1931101945191784  0.0305518725744633  0.8032139439537147
  0.1942085831289759  0.0873944748934576  0.9087139658579559
  0.3203858984309917  0.2225160300945248  0.0967195976286277
  0.2915344163234224  0.2885583500392812  0.1846722401847600
  0.2979071393538248  0.4122520863788992  0.2834491283540856
  0.2718795238208642  0.4679773824432729  0.4162498873836356
  0.2947923349444039  0.5957006895073960  0.4704865841289489
  0.2953228261231899  0.7095007409347431  0.5915279417156754
  0.3010719897145293  0.7888417656722453  0.7140355153448752
  0.3071685845575090  0.8929966029380267  0.8292937582438498
  0.2908084193233478  0.0122545906049822  0.9126091997809596
  0.2896882374229151  0.1026654498702442  0.0231623137544332
  0.3885330406418888  0.1841697969096003  0.2317002357086722
  0.3962640679983807  0.3050136677698134  0.2871032580176660
  0.4166327049355942  0.4068610023570898  0.3939627870764966
  0.4050155429632625  0.5020218032903969  0.4903454355848638
  0.4119022366134146  0.5975754286802726  0.5962735325349371
  0.4236920159043862  0.7125359796195312  0.6904115502011834
  0.4003686045570376  0.8022261689007379  0.8108722039951459
  0.4006922311373557  0.8891356705792717  0.9148787662198501
  0.3661321754243971  0.9881009109306902  0.0378721178067210
  0.3818010137853847  0.1132520801885661  0.1170466469845977
  0.5005117487678845  0.1985829651674962  0.2995787143163255
  0.5093997814337783  0.3089575410109262  0.3693135577724362
  0.4973620513797314  0.4041448027427919  0.4579204237994361
  0.5053324958929579  0.5242213833004001  0.5869501954715375
  0.5022723649436927  0.6401227027927874  0.6957971476869602
  0.5050776643413286  0.7067822289945482  0.8290992847789340
  0.5081877074355390  0.8245954158234312  0.9143673826813625
  0.4839920425704136  0.9386933101592803  0.9972458622413782
  0.4992684631318269  0.0049179143353726  0.1289733773005395
  0.4913124763696075  0.1199389147877454  0.2374436861027149
  0.5986237222923236  0.1593721030451647  0.3845944020380472
  0.5858082250422640  0.2752454184424167  0.4907091093069198
  0.5851053341587118  0.4028271836384860  0.5793188857408182
  0.5862774810123597  0.5005669065022289  0.6780403704673716
  0.5879035742006167  0.5771286793171555  0.8054517801957104
  0.6279332558748578  0.6896447475060086  0.9012989614532998
  0.6075835822956606  0.8003293154924904  0.0123086574129161
  0.5920867269826928  0.8781923478012459  0.1069751739244325
  0.5997233413490122  0.0063019747148871  0.2024569234065865
  0.6006979943334656  0.0770937411014003  0.3134057570057820
  0.7012049884526590  0.2220851517821032  0.5295018794790565
  0.6663818056712927  0.3128034875360086  0.5865139601438045
  0.6620807971238776  0.4130506264136571  0.6817883088497894
  0.6895321168543589  0.4986324925597003  0.8117943101354754
  0.6728845222732787  0.5828072441132335  0.9035762267565062
  0.6928021737577694  0.6886845903668970  0.0110251146401268
  0.7227690674031564  0.8104939601438090  0.0937144634651546
  0.7254162238994297  0.8853077245779843  0.1893252913025876
  0.7109742763267519  0.9935159939049072  0.3049979190971612
  0.7096583014690125  0.0983240846646538  0.3987572557796213
  0.7906071284017031  0.2318264246089399  0.6231342377562470
  0.7618489350253554  0.3395228080283772  0.6960097554820095
  0.7719441660912807  0.4264987928858801  0.7977848151234497
  0.7838490516892449  0.5093474398228608  0.9214751558296257
  0.7772919335253903  0.5993894297754849  0.9870343368015071
  0.8107275855336766  0.6980015694864434  0.0841000342849014
  0.8257754158234292  0.7783653565391333  0.1812938053855859
  0.8219390090712153  0.8960037308635478  0.3003456241518023
  0.8224627808861698  0.0013389181210002  0.4091328168376975
  0.7917419023356587  0.1025202514225825  0.5061863312778243
  0.8987934334896792  0.2247925120830487  0.7010121525677988
  0.8687347429823120  0.3258578010047373  0.7779741582343291
  0.8693586671745877  0.3927176129139767  0.9061211133068241
  0.8741321716149599  0.4969817285302724  0.9993445241779924
  0.8985388866931743  0.5918563715149645  0.0809225694626292
  0.9107581590914506  0.6723123154210597  0.2041381186162212
  0.8974096864360348  0.8040517911478275  0.3015925930334973
  0.9342646394133496  0.8903505002261838  0.4223007047451262
  0.9030248536939567  0.0003929520725663  0.5027769638818143
  0.8879769476917190  0.1205908373610143  0.6005218742410889
  0.9956053541582364  0.2267282778981468  0.7895644327516038
  0.9911518687650300  0.2963978257660500  0.8990470517368649
  0.0012753020166159  0.4202076693412096  0.9979114921073275
  0.0222763643722743  0.5131861946144127  0.0749186062236618
  0.0183824051808301  0.5814868841218086  0.1962261408061678
  0.9875053379681447  0.6930258008142687  0.3081660041427554
  0.0038574924406589  0.7880067698388160  0.4346040851408333
  0.0191954724887538  0.8913060141425220  0.5251890331182594
  0.0065550853551102  0.0120016047237002  0.5913439089545491
  0.0063829942144267  0.1047282655174868  0.7060723011356842
  0.1088102949929777  0.2114180290945455  0.9056204699888113
  0.0919489759767629  0.3116183505154666  0.9946834370610205
  0.1253263750863098  0.4151304464179404  0.0638211909240241
  0.1239104578462431  0.4966853141591869  0.1990630099283379
  0.0944218256708140  0.5903983019451928  0.2845845365586541
  0.1161773953001131  0.7050994971548263  0.3849995790576415
  0.1191107145067960  0.8072831218304302  0.5218042875169644
  0.0980968319801931  0.9052494188233595  0.6242934506321305
  0.1189849298826218  0.0241920054284392  0.6994195695340579
  0.0842541653770184  0.1235987024118472  0.8006355372491143
  0.3190032332563533  0.3003670579271898  0.0004432499226183
  0.2941519897145284  0.4109180724268455  0.1003312649698813
  0.3025617409109316  0.5086335806290307  0.1939307821242338
  0.3054599028594538  0.5748316154377306  0.3047642808504563
  0.2924528177900498  0.7224933239684788  0.4028294364419907
  0.2873465493678751  0.8005879298111935  0.5207989776433877
  0.3002908940263325  0.9051133644437073  0.5928177000547592
  0.3255372095902445  0.0020846108426014  0.7406008975976732
  0.3141326244613225  0.1279683874193438  0.7966714202042837
  0.2927220618556703  0.1840490407371220  0.9131007314111557
  0.3880141053784456  0.3027121935191985  0.1251073007785521
  0.4051559167638885  0.4012816075807706  0.1925330401657135
  0.4190056465322272  0.4929079588581189  0.3072513102069010
  0.3811330125473233  0.5980965100830957  0.4016811223542263
  0.4167131730196871  0.6884391852574936  0.5003883931334983
  0.4076636675317289  0.8080155539153822  0.5876097331015941
  0.3969873926811260  0.9013668579319543  0.7126079179067162
  0.4223826861265181  0.0150569753101095  0.8380610333087333
  0.4062445537011001  0.1093026023189907  0.9306530544510849
  0.3963862436608636  0.1957272955405855  0.0044712359229564
  0.5225411118782901  0.2890460517606712  0.1987886897930977
  0.5049657798623812  0.3917573405395132  0.2915479569534085
  0.5110237665769830  0.5043013456822436  0.3790686159853323
  0.5153473222066154  0.5858790728792158  0.4842008961691420
  0.5366840251422573  0.7191497588152629  0.5699387595533452
  0.5066081145686994  0.7925049870241168  0.7198938387181286
  0.5069430051665407  0.9067110216423444  0.8165893112068758
  0.4929683345634643  0.0071167015071083  0.9257374867265042
  0.4887642608509353  0.0990321606628441  0.0490812737791941
  0.4821834313468756  0.1951363072307828  0.1377993009690215
  0.6073710659270048  0.2728539506202239  0.2987899192876355
  0.6003646313182998  0.3891805099878596  0.3694994600128538
  0.5898663679436211  0.4895236384847976  0.4662974229185011
  0.6146073669674550  0.6020767848384594  0.5758120135234890
  0.6077826589843127  0.6958349415490090  0.6947355158210513
  0.6005901654722479  0.7886059779529049  0.7887492354943930
  0.5805740668079338  0.8931835051546386  0.8997316525797032
  0.5963626713649646  0.0138764481798077  0.0203965619866224
  0.6093161205685576  0.1078656141520469  0.1111912630651659
  0.5992726706506986  0.1851651079736172  0.2080836908645054
  0.7047858179567186  0.2767668212661576  0.3779434070617356
  0.6912489888335998  0.3925193500154762  0.4859991376395811
  0.6845347353634423  0.5093447713149715  0.5668631584962256
  0.6898848736934866  0.5918604409418791  0.6905416271041176
  0.6937126373181570  0.7061463569915034  0.7863285617009126
  0.7019228346944146  0.8002551796385831  0.9087986086045561
  0.7073364048475028  0.9069185367015038  0.9839827870764992
  0.7094483878955273  0.9894907283159924  0.1005330163567564
  0.7152461479488608  0.0712178843360860  0.2147234522987560
  0.7023190652603475  0.1865779571914956  0.2676862146139385
  0.7922314306802249  0.2748632908740234  0.4727289769291190
  0.7918809123592325  0.3974122668507860  0.5714265636532474
  0.7775316044856098  0.4788689188352677  0.6597593404918953
  0.7612985867003133  0.5801025951763066  0.8049473026832672
  0.7803972914930597  0.7044477112449670  0.8926881355205794
  0.8120952724935151  0.7874304764172280  0.9674063169924523
  0.8169371572105391  0.8870955058212928  0.0763691945429841
  0.8147656212947325  0.9704174672031627  0.1745530925454162
  0.8254283055165388  0.0787879750482148  0.2859575786290804
  0.8176469536439583  0.1800191419251931  0.3710641256160585
  0.8778959596200124  0.3203380624270835  0.6177880612366380
  0.9045123449441661  0.4056371814956776  0.6724166448417890
  0.8573509706911722  0.5026127211256863  0.7803519154305860
  0.8661028375514874  0.5986347706006967  0.8910864498464335
  0.9078793085878942  0.6941089988333644  0.9674747867907882
  0.9074121516154392  0.7845681250446432  0.0855674988690751
  0.9287992523987540  0.8791269255493930  0.1817279655246296
  0.9133953843956064  0.9743585462250905  0.3182290997833377
  0.9141339549058358  0.0713075483917081  0.4096698702411814
  0.8915683193257280  0.2051680636175348  0.5216899592866824
  0.0106430956405816  0.3061391933525357  0.6953982138520516
  0.9815926525558893  0.3965056508178364  0.8111612337801475
  0.9814046932215916  0.5056168905502219  0.8979464403228476
  0.9892022099473792  0.6143498921454267  0.9982299607152214
  0.0163172738744350  0.6909248889312138  0.1152397495297706
  0.9877679621913771  0.7834378838599108  0.1915005323682735
  0.9892363910383111  0.8912661850908279  0.2881189995476277
  0.0374677550534486  0.0044611623532802  0.4167652513035378
  0.0264383286112206  0.1053184881312319  0.5211121992333503
  0.9846936268184123  0.2030025175591064  0.6248945925097047
  0.1029889031213571  0.2972893526344578  0.7902164257993860
  0.0880846946501279  0.3986323739910986  0.8942373648246473
  0.1138186071760217  0.5210757529582608  0.9915464998452421
  0.0904885745577459  0.6097731639722852  0.0733365643675157
  0.1010822904216582  0.7004558377181525  0.2170668069807888
  0.0720510464036579  0.8086841679959988  0.2978331049260703
  0.0999291631151635  0.9053398738125296  0.4100430023094717
  0.0967754667746021  0.0159034180138562  0.5219749691674025
  0.0980018285278916  0.1158092059712885  0.6237248651222558
  0.0947854141568030  0.2020692316849590  0.7164211804480871
  0.1840182705173703  0.3017985690816900  0.9120615713911562
  0.2189339249065512  0.4214488012190216  0.9858220766172252
  0.2006387676483925  0.5249739720482864  0.1058326892216854
  0.1954602623747022  0.6156891131163533  0.1884093131115918
  0.2265432965881757  0.6882474550605906  0.2899070545939395
  0.2010216594842973  0.8121999252398737  0.4073705930811187
  0.1986500688078863  0.9162498097664340  0.5219784771791183
  0.2049014232994466  0.0274622966119864  0.6331053565391329
  0.2043271507821274  0.1204098173853012  0.7109288121711401
  0.2066579481440911  0.2158350563081797  0.8209847641722803
  0.4092524630365943  0.4056474669650711  0.0071854565367460
  0.3944230246898854  0.4971433527773144  0.1039875598200055
  0.3996078207661711  0.5888395285826533  0.2142133434918208
  0.3844114387752668  0.7004770395942970  0.3151820399514307
  0.3877676888645496  0.7986687931239729  0.4173401257112914
  0.3992387143163256  0.9010417042451380  0.4988537515773430
  0.4122674622032818  0.9894255622485204  0.5981341915668708
  0.4160892888264556  0.1011326768410257  0.6947553253493979
  0.4150872703030899  0.2137923201828542  0.8287803814194916
  0.3941424451798738  0.2905358481940894  0.9043709321206634
  0.4931891378776712  0.3982098459560461  0.0985557091497853
  0.5192806523654170  0.5034223556582020  0.2030320454274914
  0.5086886778886210  0.6036473022070936  0.3188972010190199
  0.4959359034308690  0.7221583071831645  0.4000612704459385
  0.4958161153305838  0.8134946248898842  0.4892745467965014
  0.5151005566534153  0.9033872636365814  0.6128293369205480
  0.5078808399800039  0.0032812513987750  0.7086869369776920
  0.5128154715363920  0.1136149534534923  0.8056221885193224
  0.4995708749791703  0.1924305430823097  0.9461212199709550
  0.4615609628342199  0.3050529115973433  0.0383878088616925
  0.6065820799504777  0.3873649184543240  0.2113670612604466
  0.5821707992666845  0.4992578195757247  0.2867599338110978
  0.6073956615318679  0.6024251165448433  0.3938954672507791
  0.6065647503630842  0.6930162043760859  0.4593188809790263
  0.5782141810909280  0.8018344715601984  0.5887856741506141
  0.5783487959810500  0.9205053141591861  0.7240296683412311
  0.5898382081378983  0.0259103016594864  0.8070032451608284
  0.6055511187828841  0.1009605180828999  0.9419563929430268
  0.6056366076998145  0.2050719001928556  0.0240201495202470
  0.6068480312373481  0.2972723692293044  0.1192179705245096
  0.6943113063974664  0.4213763367538874  0.3005429113592513
  0.7078464788933587  0.5064757167686480  0.4072249075022043
  0.6978113202066609  0.5997432842075199  0.4878779890954945
  0.6819416475798192  0.7134415785338462  0.6126257427204109
  0.7021111306873635  0.8238837532439689  0.6870564629413565
  0.6962987447917897  0.8998845179876653  0.8217409128354092
  0.6952511735434896  0.0224581809956916  0.8990386305087981
  0.7313752391609754  0.0906560153329679  0.0165572581605176
  0.7063534358705752  0.1945741796623892  0.1115136172948255
  0.7164356943882311  0.3026457327206487  0.1893962515178202
  0.7845724935120586  0.3828875545820338  0.3919984343229928
  0.7878824185138456  0.5131029246922694  0.4756945820337606
  0.7717785671769732  0.5924624294659679  0.5851312373514901
  0.7933415894859621  0.6983991728768331  0.6804040313325856
  0.7940516763886549  0.8240149801195216  0.7890116397228653
  0.8240302964215118  0.9006659284302785  0.8663857731958728
  0.8180659065260372  0.0049760915216339  0.0019274445846520
  0.8455976110092607  0.0761586071760192  0.1021070503083266
  0.8130443694197780  0.1854340677602906  0.1861792238280060
  0.8022684888455061  0.2941374257755740  0.2841683483726598
  0.8923824347039329  0.3901925135115860  0.4843185119401952
  0.9137890226423195  0.4955348363134178  0.5909017890050237
  0.8806560253327333  0.5956958491464519  0.7023592285897990
  0.8744186395562039  0.6767477693388244  0.7763799714292503
  0.8947201866622194  0.8077606904597516  0.8480363538963331
  0.9023456931977805  0.8927263641341838  0.9764477745767977
  0.9169060850932098  0.9861344987024125  0.0744715230589748
  0.9301465774624447  0.0885815342491867  0.2058510840218091
  0.9105923673245897  0.1898399700007118  0.2920536096759605
  0.9007268503130845  0.2673897769100719  0.3789824880360015
  0.9993954534415863  0.3886047165543687  0.5743926296992896
  0.0088565767481725  0.4751873331587362  0.7101701607104616
  0.9852978319563803  0.5769606876026785  0.7886968353134449
  0.9765903088021730  0.6933506187947884  0.8717772524463712
  0.0018509025975604  0.7760892007333169  0.9530342948977406
  0.0458610971167346  0.8948685655103432  0.0806913483012295
  0.0052941296635822  0.9998153343967999  0.1936453351110714
  0.9980182762315195  0.0762218642413259  0.3041171305445118
  0.9951643203733269  0.1951787838384789  0.3906815504392753
  0.9848669403109440  0.2825925611294977  0.5232144101330931
  0.0953479179067145  0.4019586119378076  0.7198634208709294
  0.1045450727363644  0.4977758567653154  0.8237114125854177
  0.1070512178281504  0.6004086716982897  0.9005772538749071
  0.0999968334087313  0.6990324211328272  0.9880622751839212
  0.1144537311016407  0.7767087197923885  0.0910620585224180
  0.0730007318873334  0.8978455136782486  0.2012916149615478
  0.0985200523797047  0.9946881188543131  0.3041087278874315
  0.1194295478679095  0.1009880945691748  0.3819527577914812
  0.1047405061784232  0.1921742258517654  0.5084804776076766
  0.1020696421513776  0.2815567548391726  0.6187469141210897
  0.2041794833456336  0.4167292173995847  0.7952007552201152
  0.2142667641246661  0.4966439289540716  0.8823009171210217
  0.2203490069284086  0.6004782686126546  0.9844363824670808
  0.1885971829242195  0.6657733368253105  0.0894580000476211
  0.1778663788957431  0.7791084359896203  0.2104725139877601
  0.1849573595866758  0.8811333153972498  0.2771497821480438
  0.1889430623080415  0.9988736791981125  0.4081907606961721