Li 
 1.0000000000000000
    21.0004999999999988    0.0000000000000000    0.0000000000000000
     0.0000000000000000   21.0004999999999988    0.0000000000000000
    -0.0000000000000000   -0.0000000000000000   21.0004999999999988
 Li 
 500
Cartesian
  0.3968504000000000  0.3487801500000000  0.0911363700000000
 -0.1291535400000000  2.4377530100000002  2.1039240299999999
 -0.0402862300000000  5.0270947699999997  4.2515328800000001
  0.1069506500000000  6.7150939599999999  5.7730483799999996
  0.3321431500000000  7.8168102199999998  8.4839268099999998
  0.5399583900000000 10.4887848199999993 10.5541903300000008
 -0.0535308400000000 12.5880094000000007 12.9325384600000000
 -0.0423000100000000 14.3965773400000003 14.9796547300000000
 -0.2655235800000000 16.8690891399999998 16.2968883600000005
  0.2214646900000000 18.8417963700000008 18.5851312600000007
  2.6618679599999999  0.1685218300000000  2.3254827200000001
  1.6340648000000000  2.6391537199999999  4.3966492500000003
  1.8505655299999999  4.3398197700000001  6.3165293100000000
  1.9613741499999999  6.1425757000000001  8.7639441399999995
  1.8700752599999999  8.5012067800000004 10.4475736099999992
  2.0591770399999998 10.5806076200000003 12.4692673400000000
  1.6353724100000000 12.8342292899999997 15.0824351399999994
  1.8625411100000000 14.6630233499999996 17.1738309399999984
  1.8164308300000001 16.3802340199999996 18.4026302400000006
  1.6467867599999999 18.6512297999999994 20.6371019099999984
  3.7583332399999998  0.2013036900000000  4.2990228200000002
  4.1327347200000002  2.3634480999999998  6.4747807300000000
  4.3936208600000004  4.6220920899999998  8.3109359099999995
  3.9375198899999999  6.4057172500000004 10.6114809900000004
  4.1092559700000004  8.2271591700000002 12.9413152199999999
  3.7894031500000001 10.7928347900000006 14.5765173699999995
  4.3891448999999998 12.6793262900000006 16.5599438300000017
  4.0693318300000003 14.5129876299999996 18.9933345100000004
  4.1724265599999999 16.6264027100000007 -0.3542605700000000
  3.2086160600000002 18.1744697799999990  2.2837820000000000
  6.0878110699999999 -0.1372836300000000  6.4522117400000001
  6.2824431499999998  1.8047759500000000  8.4764130899999994
  6.1041099499999998  4.7777923700000002 10.6885910299999995
  6.9229257999999998  6.5459098600000001 12.9487307699999992
  6.8635286400000002  7.9942958400000004 14.8659562699999999
  6.2988831699999999 10.4159526699999994 16.2017666399999989
  6.5274528600000004 12.4349711999999997 18.4483206700000011
  6.0973343099999999 14.7296672999999991  0.0039494500000000
  6.1732956999999997 16.4949381700000011  2.4766197200000000
  5.5041323599999998 18.6129313900000000  3.9046531199999999
  8.0409853400000006 -0.1345738300000000  8.5206077499999999
  8.2464622399999996  2.1769740899999999 10.7403983800000002
  8.9048204500000008  4.5530553500000002 12.4211124300000009
  8.4614570199999992  6.3531247999999998 14.9899637600000002
  8.9911865899999999  8.4298838600000003 16.4209919800000002
  8.6212192900000009 10.2159364700000008 18.5796332399999997
  8.2762090399999995 12.5932705200000008 -0.1104227300000000
  8.6238353799999992 14.2134552099999993  2.1351604700000002
  8.5225204600000009 16.7760268500000009  4.1955309500000002
  8.0907162199999991 18.7885892599999984  6.3035985099999996
 10.7868429599999995  0.5816454100000000 10.1061888599999996
 10.6995001100000007  1.9605397099999999 12.3296296000000005
 10.4780861499999993  4.0111131300000000 14.3360772000000001
 10.7670526800000008  5.9129710099999997 16.9931332099999999
 10.2302916300000000  8.3108692400000006 19.6423211199999983
 10.6986448900000006 10.6892999100000008  0.4081993000000000
 10.4723620900000007 12.5698523899999994  2.0863961600000001
 10.3020892100000001 15.1042589100000004  4.6543278099999998
 10.6009282999999996 16.6355399999999989  6.4606311800000000
 10.4990841800000005 18.5937736499999993  8.0889124900000002
 12.4546802299999992 -0.1608060200000000 11.9886761199999992
 12.9022864100000003  2.2022982500000001 14.8424699899999997
 12.6131028999999995  3.6632500200000000 17.3933343299999983
 12.5946486699999998  6.0742779200000001 19.4746373699999999
 12.7329766499999995  8.2994727099999999  0.7424085600000000
 12.6900534900000004 10.7773462000000002  2.1887766700000002
 13.0161082900000000 13.0110545799999997  4.0924964499999996
 12.6898042300000000 14.4435806600000003  6.5079716300000001
 12.7193726999999992 16.8061865600000004  7.5845809199999996
 12.0249683800000007 19.1878586200000001  9.8713566099999994
 13.9692410700000007  0.1431389900000000 14.4312059900000005
 14.7010511600000005  2.3376741100000000 17.1655372700000015
 15.1961094800000005  4.2561030600000000 19.8659239999999997
 14.7922720400000003  6.2563003100000003  0.8529225300000000
 15.2118401700000003  8.7042126500000006  2.7206314800000002
 14.8930861500000002 11.0348322799999998  4.5360229399999996
 15.1505185999999998 12.6619313899999995  6.3693610400000003
 15.2497418800000002 14.6238200099999993  8.2246593099999998
 14.3643398900000001 17.0213184800000015 10.3769022399999997
 14.4822099800000004 18.4799812000000010 12.1111066699999999
 17.0139661099999984 -0.1052461600000000 16.3286938600000013
 17.0775587800000004  2.1082703000000000 18.5430551100000010
 16.9362656899999990  4.3030234199999997  0.0771744200000000
 17.3971088700000003  5.9587064200000004  2.1532021900000000
 16.6309849499999984  9.2801772000000007  4.6160887099999997
 16.9902338099999994 10.4330607900000008  6.6803529299999997
 17.0521342900000015 12.4843197900000007  8.3007423100000004
 16.9968357999999995 14.2152163599999994 10.6026403100000000
 16.8737688199999987 16.7542611599999987 12.1591062900000004
 16.6139691300000010 19.0771928700000011 14.3794434399999993
 19.2129615800000018  0.1794757700000000 19.2657965500000010
 18.8469681400000013  2.4150751300000000 21.1766201400000007
 18.8790635500000015  4.4206144500000004  2.2674308200000000
 18.4218832100000007  6.5939627099999996  4.6569757100000002
 18.9529607999999996  8.5105001500000004  6.2803140700000002
 18.9977153399999992 10.4318486499999992  8.7076973800000008
 18.9306463799999989 11.9361661300000002 10.7236398000000008
 19.2056950899999990 14.1671992200000005 13.0889771300000000
 18.6795092099999991 16.5557397699999989 14.3832761199999997
 18.9819595999999997 19.6740465700000016 16.2442133899999988
  2.3641838499999999  2.1345460400000000 -0.2412761700000000
  1.5221961799999999  4.6703318100000004  2.0672894199999998
  1.8257679700000000  7.0211945399999998  4.2952843100000004
  2.6600828700000001  8.7980879200000004  6.3702793099999999
  2.1524940799999999 10.4249282599999997  8.0617364400000007
  2.3896775899999998 12.2937704399999994 10.4737175199999992
  2.2896616600000002 14.6388701500000007 12.9918817799999999
  2.1914058000000001 16.5210763400000005 14.7397092099999991
  1.8588211600000000 19.4408266000000012 16.2639078800000014
  1.6369174900000001 21.0443960200000006 19.1480479899999985
  4.1674376700000000  2.8621545099999999  2.3826460800000002
  3.8532774200000000  4.3736525000000004  4.1943402399999998
  4.1859012599999996  6.7824046700000000  6.5099902900000002
  4.1687936800000003  8.1195515500000006  8.8396649600000003
  4.3892466700000003 10.7840980099999992 10.5706326700000002
  4.2819322599999996 12.7158692799999997 12.8732466199999998
  4.2224909600000000 13.9697182800000004 14.5709669599999998
  3.9864839100000000 16.7279115800000007 16.6440765800000001
  3.8288452600000000 19.1082469699999997 18.5024626099999985
  3.6797939600000000 20.7512546100000002 21.1553813499999990
  6.1357195000000004  2.4378504799999998  4.2262323100000003
  5.7907204900000000  4.4214138900000002  6.5225424399999996
  6.6045992599999996  6.5999771599999999  8.4947272199999997
  6.7100592800000003  7.8350863400000001 11.0232893300000008
  6.5461154099999996 10.4994254599999994 12.5030807500000005
  7.0598622999999998 12.1262532800000002 14.9853796900000003
  6.2462007200000000 14.5895818199999994 17.0965277700000016
  6.0250703300000001 16.4337178199999983 18.5319888800000001
  5.7949297700000004 18.6770802799999984 -0.1488892900000000
  5.4058721600000004 20.8501201099999989  2.5229863699999999
  7.8633369300000000  1.4658378500000000  6.0501142100000003
  8.0817841200000000  4.0756614100000004  8.2843325700000001
  8.5883631400000002  5.8388728399999996  9.6982162899999995
  9.0290008900000007  8.5995184400000007 12.4213853800000003
  9.0844164400000000 10.0079139099999992 14.6295166900000009
  8.7836453399999996 12.8078981699999996 16.8350789499999998
  8.3148170100000005 15.0216037300000007 19.1257279800000006
  7.7255932400000003 17.3721938300000005  0.4738286600000000
  7.8808264000000001 19.0410559600000013  2.4915867700000001
  8.1143812400000002 20.9874654000000014  4.2085514200000000
 10.0346126099999999  1.8956216600000000  7.9081094099999998
 10.5136905400000007  3.8742280199999999 10.0379171399999993
 10.3970319199999999  6.6478175000000004 12.4201439499999999
 10.6816330500000003  7.9357356699999997 14.6590995500000005
 10.6042394499999997 10.2395076899999999 16.6329851499999997
 10.2790291499999995 12.3128558100000003 19.1496722999999989
 10.2757225400000003 14.6898953399999996 -0.6174073000000000
 10.2096436199999996 16.5291672399999996  1.8611848799999999
 10.5169195099999992 18.4036858300000006  3.7849788100000001
 10.3894955600000003 20.5454700999999993  6.2787159299999997
 12.7588994299999996  1.7777126999999999 10.3662062400000003
 11.7990112600000003  4.2449623399999998 12.2190735799999999
 12.3642830600000000  5.8542157599999998 14.7739195500000005
 12.6257806699999993  8.6341292500000009 16.9914462399999984
 12.5157711799999998 10.1035987600000006 19.5580810900000017
 12.3723077600000000 12.7912289399999999  0.0958519400000000
 12.2827315600000002 14.5796501000000003  2.2239667500000002
 12.7902354400000000 16.3043027199999990  4.1447113900000003
 12.6493599000000003 18.9574391400000017  5.6311324999999997
 12.7454734999999992 20.5051549299999998  8.2592542499999997
 14.4836337999999998  1.9149046999999999 12.6116384299999993
 14.5912495599999996  3.9271351299999999 14.4295726099999992
 13.8035424899999999  5.6267627300000003 16.4101820600000003
 14.8646135699999995  8.5074570299999994 18.6835261000000017
 14.4646234299999996 10.2518677999999994  0.2785904600000000
 14.7601878600000003 12.2915190299999999  2.3516953500000000
 15.2406825900000005 14.6526453300000004  4.2000867099999999
 15.1436251399999993 16.7774371500000008  6.2269438099999999
 14.5219625499999996 18.8039549100000016  8.1389851800000006
 14.9321413199999995 20.8236498899999987 10.1593066499999996
 16.4561927899999993  1.9413190499999999 14.8439974400000008
 16.8583918500000003  4.0502960200000002 16.0963775600000005
 16.1651583000000016  6.3388554700000004 18.6008163499999988
 16.6337876599999994  8.5043067499999996  0.4918099300000000
 16.7533831000000006 10.9149035500000000  2.1417935300000002
 17.1757259100000006 12.6758631800000003  4.5195561299999998
 17.2196313799999992 15.1783769700000004  6.2090156900000002
 17.5950804199999986 16.7357130299999994  8.9270159600000003
 17.1574582100000015 19.0159213600000001 10.2654406900000001
 16.3845297599999995 20.9105680700000001 12.3425761099999995
 18.9022059899999988  1.5943598200000000 16.8926387099999999
 18.5333670599999998  4.5278393399999999 18.5711966000000004
 19.1301962199999984  6.7952822499999996 -0.2464112500000000
 18.9183909700000008  8.9922364600000009  2.2043381200000001
 19.0373125899999991 10.8226697800000000  4.1684538099999999
 18.6214534299999990 12.2580115200000002  6.6541498800000003
 19.3468898799999991 14.9011633900000007  8.7752768600000000
 19.4289234700000009 16.5255248399999992 10.8846461800000007
 18.7907450500000017 19.2308161899999988 12.5051572300000000
 18.6056205199999987 21.0697048299999992 13.7978342400000002
 20.7706867600000002  2.3355555699999999 18.7466824999999986
 20.6784928900000011  4.4295059900000000 21.2019870700000013
 20.4383954000000010  6.5668480799999998  2.4490625800000001
 21.1009198699999985  8.8853749400000002  3.6883582499999998
 20.8886559600000012 10.0455105299999996  6.9040822799999999
 21.2232196600000016 12.7626923899999998  8.3960952700000000
 21.6904936299999989 14.7205480800000004 10.4960522699999999
 20.9882235299999991 16.6583255000000001 12.9462130999999996
 21.1069461999999994 18.9529187800000010 14.6207090799999992
 21.0048428600000001 21.4377204799999994 16.6849607199999994
  3.9825777200000001  4.1476677899999999  0.0960451000000000
  4.1500588199999999  6.3375483900000003  1.7398323400000000
  4.0961351900000000  8.2828958900000007  3.7877868000000001
  4.3409210900000001 10.9561530400000002  6.0501739800000003
  4.2660264899999998 12.8195225700000002  7.8734458399999996
  3.7780242799999999 14.6812781000000001 10.7984606900000006
  4.2262040599999997 17.0264337200000000 13.4058938899999998
  4.6879972800000003 18.9881688400000002 14.8547843799999999
  4.0554106399999998  0.6416046000000000 16.8678944299999998
  4.0784773500000000  1.8353276700000001 19.0834476399999993
  6.7282640599999999  4.6729478899999997  2.0311599100000000
  6.1223685100000003  6.0598696299999997  3.8782093799999999
  6.2561988800000004  8.6574999399999992  5.9525734200000002
  5.7096059400000003  9.8277590200000002  8.7414557599999991
  6.1907864300000002 12.5100123300000003  9.8804535100000006
  6.2019270100000004 14.8998703100000007 12.4223825399999992
  6.3226623200000001 16.5660714999999996 14.9951028399999995
  6.4506938600000003 18.7533751600000009 17.4155835699999990
  6.1071222100000000  0.2573525300000000 19.1652495000000016
  6.0835978300000004  2.1560257799999998 21.4869201700000012
  8.1593881199999991  3.8676578199999998  4.8658207999999998
  8.3217435599999998  6.4054395299999998  6.0293119700000002
  8.7494951200000006  8.5442844800000000  8.2734155099999995
  8.5055289100000007 10.5427088799999993 10.2974993200000000
  8.6501529200000000 12.5493827899999992 12.5220423200000006
  8.8977441800000001 14.9636118400000004 14.4989877600000003
  8.4079408800000000 16.8471506600000005 17.0287217200000001
  8.4147371999999994 18.6722936500000003 19.2129115299999995
  7.6889587500000003 -0.2498868200000000  0.7953334100000000
  8.0180121900000003  2.3783503100000001  2.4580381099999999
 10.5109969799999998  4.1703415599999998  6.2913027899999996
 10.6976501099999997  6.4882628400000000  7.7557693700000003
 10.4448517600000006  8.4872429300000007  9.6165578600000003
 10.6122350799999996 11.0089111600000003 12.3262475800000004
 10.5479707999999999 13.4428968199999996 14.6120880000000000
 10.6068834899999995 14.8427802000000000 17.4114995300000004
 10.6721959500000008 17.3169160300000016 19.2021722200000013
 10.1640748900000002 19.7130288600000014 -0.0578382700000000
 10.4848873600000001  0.1032786600000000  2.7085054099999999
 10.3178076599999997  2.5187771799999998  4.9864361300000004
 12.5713974799999999  3.3468938499999998  8.0766747399999996
 12.3022656300000008  5.7802914100000002 10.3051366499999997
 12.2875045699999994  8.4595722700000007 12.1659862600000004
 12.3121202400000005 10.5121553199999997 14.2391868000000006
 12.3462690100000003 12.1199908300000008 16.9148901100000018
 13.1869123399999992 14.4828845200000007 18.9277288400000003
 12.7595590199999993 16.8073157900000005  0.2584879600000000
 12.4341173099999995 18.4424783999999988  2.2465321399999998
 12.5944900299999993  0.1323446200000000  4.2516966199999997
 12.6149582299999992  1.6190071100000001  6.5816775999999999
 14.7256553599999993  4.6638992300000002 11.1198042200000007
 13.9943511100000002  6.5690296400000001 12.3170864200000008
 13.9040277799999998  8.6742696800000001 14.3178953799999995
 14.4805192199999997 10.4715316600000001 17.0480864099999998
 14.1309114099999995 12.2392435299999995 18.9755525499999997
 14.5491920500000003 14.4627207400000000  0.2315329200000000
 15.1785118000000008 17.0207784099999984  1.9680505900000000
 15.2341034099999995 18.5919048700000005  3.9759257799999999
 14.9308152900000000 -0.1361673700000000  6.4051087999999998
 14.9031791600000005  2.0648549400000000  8.3741017499999995
 16.6031450000000014  4.8684708299999997 13.0861305600000009
 15.9992085599999996  7.1301487300000002 14.6165528699999996
 16.2112134599999997  8.9566879000000004 16.7538800099999996
 16.4612220100000002 10.6965509099999991 19.3514390100000000
 16.3235192500000004 12.5874777200000008 -0.2722854100000000
 17.0256846599999996 14.6583819599999998  1.7661427700000001
 17.3416966200000005 16.3460616700000010  3.8072605600000000
 17.2611301600000004 18.8165263500000002  6.3074082799999998
 17.2721296299999985  0.0281179500000000  8.5919937199999996
 16.6269758199999984  2.1529765400000000 10.6301660499999997
 18.8751114999999992  4.7207551499999996 14.7216057100000004
 18.2438639699999996  6.8431767499999996 16.3378463099999998
 18.2569666899999987  8.2472662299999993 19.0289964400000002
 18.3572126699999991 10.4368647899999996 -0.0137653200000000
 18.8697658900000000 12.4292797299999993  1.6994144200000001
 19.1263767199999997 14.1188947799999998  4.2870025600000004
 18.8460521199999995 16.8854896399999994  6.3335952500000001
 19.6200245600000009 18.6978056799999983  8.8685259500000004
 18.9639734400000002  0.0082521900000000 10.5585676300000006
 18.6479598899999992  2.5324678800000000 12.6112596200000002
 -0.0922897600000000  4.7614071999999998 16.5812478699999986
 -0.1858151800000000  6.2245025399999996 18.8804376100000013
  0.0267819800000000  8.8245711599999996 -0.0438597100000000
  0.4678147900000000 10.7771666800000006  1.5733281900000000
  0.3860397000000000 12.2115153099999993  4.1208470699999999
 -0.2623941500000000 14.5538883299999995  6.4716401699999997
  0.0810092700000000 16.5485361699999984  9.1269030900000008
  0.4031145200000000 18.7178719499999993 11.0292322899999995
  0.1376600700000000  0.2520397000000000 12.4185177600000003
  0.1340460700000000  2.1993459400000002 14.8278713599999996
  2.2850706000000001  4.4398843200000000 19.0184826800000017
  1.9309744700000000  6.5441411699999996 20.8888495200000008
  2.6319165400000002  8.7179469399999991  1.3402769200000000
  2.6021815699999999 10.4306399400000007  4.1804227400000000
  1.9829055499999999 12.3986595400000006  5.9764175599999998
  2.4397833900000001 14.8074419899999992  8.0851836600000002
  2.5013845600000000 16.9533492000000017 10.9581509399999995
  2.0600825199999999 19.0106904199999995 13.1104746100000007
  2.4987430200000000  0.5080442100000000 14.6881606700000003
  1.7693795999999999  2.5956345500000002 16.8137466000000018
  6.6992273999999998  6.3078583999999998  0.0093084700000000
  6.1773388599999999  8.6294849800000009  2.1070067300000002
  6.3539478400000000 10.6815595099999996  4.0726433899999996
  6.4148106900000004 12.0717513400000005  6.4002022800000002
  6.1416554000000003 15.1727210499999998  8.4596195800000000
  6.0344212099999996 16.8127468200000010 10.9370389299999999
  6.3062589200000003 19.0078332100000011 12.4494681099999998
  6.8364441700000000  0.0437778700000000 15.5529891500000002
  6.5969421800000001  2.6874001199999999 16.7304981599999998
  6.1473096600000003  3.8651218799999998 19.1755719099999986
  8.1484902199999993  6.3571074200000002  2.6273158699999999
  8.5084768299999993  8.4271144000000007  4.0432901100000000
  8.7993280800000004 10.3513135900000002  6.4524311399999998
  8.0039838299999992 12.5603257599999996  8.4355044100000001
  8.7511849900000005 14.4575671099999994 10.5084064500000007
  8.5611408499999992 16.9687306400000004 12.3400981999999999
  8.3369337399999992 18.9291547000000016 14.9651225799999992
  8.8702476000000008  0.3162040100000000 17.5997007299999986
  8.5313387499999997  2.2954093000000002 19.5441794699999996
  8.3243093100000003  4.1103710700000002 21.0943981899999997
 10.9736246200000007  6.0701116099999997  4.1746618800000004
 10.6045338600000001  8.2271000300000008  6.1226528699999996
 10.7317546099999994 10.5905804099999994  7.9606304699999999
 10.8225514399999998 12.3037534700000002 10.1684609199999993
 11.2706328700000000 15.1025045099999993 11.9689989200000007
 10.6390237100000000 16.6430009800000001 15.1181305600000009
 10.6460565799999998 19.0413848100000003 17.1487838299999993
 10.3525815100000003  0.1494542900000000 19.4409500900000012
 10.2642938600000004  2.0797248900000000  1.0307312900000001
 10.1260931500000009  4.0979600200000004  2.8938542200000001
 12.7550960700000005  5.7300693899999997  6.2747377000000002
 12.6079574399999998  8.1729853000000006  7.7596734100000004
 12.3874886600000007 10.2802411700000000  9.7924790300000009
 12.9070620100000006 12.6439135199999999 12.0923401899999998
 12.7637397299999993 14.6128816900000000 14.5897932000000008
 12.6126937699999999 16.5611198399999999 16.5641283199999982
 12.1923456899999998 18.7573001999999995 18.8948145700000012
 12.5239142799999996  0.2914123500000000  0.4283380000000000
 12.7959431899999991  2.2652318299999998  2.3350721200000000
 12.5850257200000009  3.8885598500000000  4.3698615500000004
 14.8008545700000003  5.8122416299999999  7.9370005199999998
 14.5165743900000006  8.2431026099999993 10.2062248899999997
 14.3755717099999991 10.6964948700000004 11.9044097600000001
 14.4879272900000000 12.4293651900000004 14.5017194400000005
 14.5683122399999991 14.8294265700000008 16.5132929600000011
 14.7407304900000007 16.8057589000000007 19.0852251799999983
 14.8544181700000006 19.0457427300000006 -0.3363694800000000
 14.8987708699999999 -0.2206999600000000  2.1112436099999998
 15.0205267300000003  1.4956111800000000  4.5092998599999996
 14.7490515299999991  3.9182303900000002  5.6215443499999997
 16.6372561599999997  5.7722665400000004  9.9275448799999992
 16.6298950999999988  8.3458563100000003 12.0002435500000004
 16.3285524600000009 10.0564867299999996 13.8552760300000006
 15.9876509700000007 12.1824445499999996 16.9042958299999988
 16.3887333200000000 14.7937541600000007 18.7468971899999985
 17.0544067699999999 16.5364337200000016 -0.6844836399999999
 17.1560887700000002 18.6294491700000009  1.6037912700000001
 17.1104854300000007 -0.6212479800000000  3.6657022200000000
 17.3344071299999989  1.6545868699999999  6.0052521299999997
 17.1709948499999996  3.7804919899999998  7.7925321700000003
 18.4362540999999993  6.7272594799999998 12.9738581800000006
 18.9952114999999999  8.5185836300000002 14.1210857500000007
 18.0047990599999999 10.5551184500000002 16.3877804000000005
 18.1885926399999995 12.5716295000000002 18.7132609899999984
 19.0659194200000002 14.5766360299999995 -0.6830457400000000
 19.0561088900000009 16.4763229100000004  1.7969602600000001
 19.5052486999999992 18.4621050000000011  3.8163781399999999
 19.1817597699999993 -0.5384833500000000  6.6829702099999997
 19.1972701199999989  1.4974941700000000  8.6032721100000007
 18.7233804900000003  4.3086319199999998 10.9557499899999993
  0.2235103300000000  6.4290761300000003 14.6037101899999993
 -0.3865635000000000  8.3268169200000006 17.0347914899999999
 -0.3905107400000000 10.6182075099999995 18.8573242199999989
 -0.2267589900000000 12.9016549099999995 -0.0371717100000000
  0.3426709100000000 14.5097681299999994  2.4200923599999999
 -0.2568789100000000 16.4525872799999995  4.0216069299999999
 -0.2260411700000000 18.7170355199999996  6.0506430499999997
  0.7868415900000000  0.0936866400000000  8.7522786600000000
  0.5552181200000000  2.2117409100000001 10.9436167399999995
 -0.3214414900000000  4.2631543699999996 13.1230988899999996
  2.1628184600000000  6.2432250500000004 16.5949400500000017
  1.8498226300000000  8.3714791700000006 18.7794317799999995
  2.3902476600000000 10.9428513499999998 -0.1775277300000000
  1.9003053100000000 12.8055413300000005  1.5401045200000001
  2.1227786399999999 14.7099228199999992  4.5585114799999999
  1.5131079999999999 16.9827718700000005  6.2546441200000000
  2.0985623900000001 19.0125900200000011  8.6111080700000002
  2.0323331900000001  0.3339797300000000 10.9617353400000006
  2.0580873999999998  2.4320512299999999 13.0985340299999997
  1.9905410900000000  4.2435549000000004 15.0452030000000008
  3.8644756899999999  6.3379208499999997 19.1537490300000002
  4.5977218899999999  8.8506355499999998 20.7027565200000012
  4.2135144400000000 11.0247159000000003  2.2225393900000001
  4.1047632399999996 12.9297792200000004  3.9566897800000000
  4.7575225000000003 14.4535406799999997  6.0881930999999998
  4.2215553600000000 17.0566045300000013  8.5549861400000005
  4.1717507700000001 19.2417041299999987 10.9618090099999996
  4.3030323399999997  0.5767219600000000 13.2955290399999999
  4.2909723299999998  2.5286663699999998 14.9298605200000001
  4.3399202399999997  4.5326440999999997 17.2410905399999983
  8.5945063499999996  8.5187996300000002  0.1508981800000000
  8.2830807300000000 10.4402589799999994  2.1837907500000000
  8.3919640399999995 12.3659245200000001  4.4985873200000004
  8.0728324199999992 14.7103680699999995  6.6189804299999997
  8.1433153500000000 16.7724439899999993  8.7643513100000003
  8.3842126199999996 18.9223263099999990 10.4761782100000005
  8.6578228399999997 -0.2220684800000000 12.5611170899999998
  8.7380831099999998  2.1238367800000000 14.5902092099999994
  8.7170402199999995  4.4897456199999999 17.4048024000000012
  8.2771884199999999  6.1013980800000001 18.9922417599999989
 10.3572184899999993  8.3626058699999994  2.0697191699999999
 10.9051533400000000 10.5721211799999999  4.2637744700000004
 10.6827165799999992 12.6768951699999999  6.6970006700000004
 10.4149019400000000 15.1656855299999993  8.4014867100000004
 10.4123863300000004 17.0837938700000009 10.2750101199999992
 10.8173692399999997 18.9715842300000013 12.8697224899999991
 10.6657515800000002  0.0689079200000000 14.8827800200000002
 10.7693813100000000  2.3859708300000002 16.9184687700000005
 10.4912381600000000  4.0411376199999998 19.8690186799999999
  9.6930110000000003  6.4062636700000004 21.8066631800000010
 12.7385269700000006  8.1348569699999995  4.4388139700000000
 12.2258778699999997 10.4846638399999996  6.0221019900000003
 12.7556125900000001 12.6512286599999992  8.2720017600000002
 12.7381630399999999 14.5536867999999995  9.6459261600000001
 12.1427869099999999 16.8389248199999990 12.3647935499999999
 12.1456138899999999 19.3310718500000007 15.2049850499999994
 12.3868972900000003  0.5441292900000000 16.9474716500000007
 12.7168762700000002  2.1202213599999999 19.7815552299999986
 12.7186715800000005  4.3066124400000003  0.5044351500000001
 12.7441120800000007  6.2428683899999999  2.5036369900000000
 14.5808845900000001  8.8491137599999998  6.3115514099999999
 14.8651299800000007 10.6362432899999995  8.5519266700000003
 14.6543866299999994 12.5949088400000004 10.2456817099999995
 14.3211155699999999 14.9826298700000002 12.8654469099999993
 14.7446847999999999 17.3019707599999997 14.4285292500000004
 14.6226217900000002 18.8980248199999998 17.2569700399999988
 14.6006222700000006  0.4716330300000000 18.8802607599999988
 15.3592457099999997  1.9038216500000000  0.3477107000000000
 14.8337753299999999  4.0861550600000003  2.3418417200000001
 15.0455077999999993  6.3557117099999996  3.9774159800000000
 16.4764146499999988  8.0408300900000000  8.2321631199999992
 16.5459247299999994 10.7754179699999995  9.9898240699999992
 16.2077357999999982 12.4420072499999996 12.2880485499999992
 16.6605700500000005 14.6667318299999998 14.2888248600000001
 16.6754822300000001 17.3047265900000014 16.5696389400000008
 17.3050482400000014 18.9144348300000011 18.1945344300000009
 17.1797930699999988  0.1045004100000000  0.0404773000000000
 17.7579726300000011  1.5993688300000000  2.1442991100000000
 17.0743382799999992  3.8942081399999999  3.9098567900000001
 16.8480394000000011  6.1770330099999997  5.9676774000000004
 18.7404773200000001  8.1942378799999993 10.1709309099999992
 19.1900263699999982 10.4064793299999998 12.4092330200000003
 18.4942168600000016 12.5099106800000008 14.7498949800000005
 18.3632286399999991 14.2120415300000005 16.3043675899999982
 18.7895712800000005 16.9633783800000018 17.8091874499999996
 18.9497107299999996 18.7477000099999991 -0.4946085100000000
 19.2554862399999998 -0.2911824600000000  1.5639392200000000
 19.5335432000000004  1.8602565099999999  4.3229756899999998
 19.1228950100000006  3.9867342899999998  6.1332718300000000
 18.9157142200000017  5.6153190100000003  7.9588217400000003
 -0.0126957800000000  8.1608933500000003 12.0625324200000001
  0.1859925400000000  9.9791715900000000 14.9139284599999993
 -0.3087528800000000 12.1164629200000000 16.5630278900000008
 -0.4916152200000000 14.5607096699999996 18.3077581900000013
  0.0388698800000000 16.2982612600000003 -0.9863032900000001
  0.9631059700000000 18.7926873100000016  1.6945586600000000
  0.1111793700000000 -0.0038780700000000  4.0666488599999999
 -0.0416171900000000  1.6006972600000000  6.3866117999999998
 -0.1015516900000000  4.0988520499999996  8.2045078999999994
 -0.3178018200000000  5.9345850799999997 10.9877642200000007
  2.0023539499999998  8.4413318299999993 15.1174917700000009
  2.1954988000000002 10.4535418799999995 17.2983515200000006
  2.2481290999999999 12.6088823100000003 18.9125726199999988
  2.0999835000000000 14.6800303599999999 -0.2506981900000000
  2.4035855800000001 16.3112714700000012  1.9123487600000000
  1.5330518700000000 18.8552047099999989  4.2272245599999998
  2.0689703599999998 -0.1115521600000000  6.3864353400000002
  2.5080802200000001  2.1208004800000002  8.0211988900000009
  2.1996030000000002  4.0357548300000001 10.6783442700000002
  2.1435135200000000  5.9128326299999996 12.9939945699999999
  4.2878712400000003  8.7515219299999991 16.6996134599999984
  4.4997091800000000 10.4297708300000007 18.5287604100000003
  4.6274393199999997 12.6103438800000003 -0.3268437500000000
  3.9606351399999999 13.9815729599999994  1.8786627300000001
  3.7352828900000001 16.3616667100000015  4.4200280300000001
  3.8841970300000002 18.5042401900000009  5.8202840000000000
  3.9678987800000001 -0.0236533000000000  8.5722100700000006