Li                                      
   1.00000000000000     
    22.0829999999999984   -0.0000000000000006    0.0000000000000000
    -0.0000000000000006   22.0829999999999984    0.0000000000000000
     0.0000000000000006    0.0000000000000006   22.0829999999999984
   Li
   500
Direct
  0.9918139152289100  0.0001199424896967  0.0121831598967503
  0.0019344373499948  0.1178878060046173  0.0905632681248036
  0.9709311044694999  0.2058607009917139  0.2048598736584708
  0.9728981171036537  0.2844343399900353  0.3029786523570195
  0.9906699533577878  0.4159312462074922  0.4074549001494390
  0.0017964221346745  0.5132191450436991  0.4828676656251432
  0.9806795059548037  0.6015829905357037  0.5839439229271406
  0.0003651890594583  0.7203809369198027  0.6857958031064655
  0.0105474115835733  0.7907075768690817  0.8387108929946123
  0.9914134130326531  0.8952448874699996  0.8857867531585413
  0.1281436539419474  0.9995659738260230  0.0882881551419672
  0.1059850002264184  0.1327261631118972  0.2056838119820696
  0.0824537177919638  0.1963966019109691  0.3031086682063133
  0.0826014350405302  0.3055157093691960  0.4062045745596166
  0.0857839677580046  0.4466795127473588  0.5277172915817587
  0.1055601027940014  0.5212378209482438  0.5942313883983132
  0.0929144364443246  0.6129496725988304  0.6794127437395261
  0.0972104066476476  0.6916730426119670  0.8097335946202975
  0.0819634533351419  0.8102242974233604  0.8918526332472965
  0.0885580935561308  0.8929973400353219  0.9995116573835077
  0.2341662224335437  0.0157827292487411  0.2097599234705427
  0.2014641706289879  0.1313185255626479  0.2994012933025374
  0.1849843879907596  0.2096017515736079  0.4122540940995307
  0.1723135067699104  0.3427272091654245  0.5070271598061851
  0.2175553289861014  0.4103016859122377  0.6222885273739962
  0.2180089697957683  0.4940061323189795  0.6813680333288019
  0.1727246044468629  0.5869995055019714  0.7798546936557500
  0.1944131608024264  0.6889789688900976  0.8898975084906908
  0.1811356088393765  0.8385514785128834  0.9959166902141945
  0.2258829452520033  0.9126937245845212  0.1026750704161543
  0.3024601512475655  0.9951215640990796  0.3029752520038045
  0.2955018326314374  0.1230227650228670  0.4240297948648291
  0.2558606104243069  0.2150531422361084  0.5217833781642014
  0.3001045790879857  0.3201481551419647  0.6073747629398198
  0.2997865462120188  0.4170972313544326  0.6980552769098409
  0.2933872191278368  0.5219956111035629  0.7895915256079320
  0.2767560050717748  0.6040126685685792  0.9172150559253751
  0.2934826010958673  0.7217499642258787  0.0024460698274709
  0.3076071942218022  0.7905983100122285  0.1013472390526644
  0.3125303808359376  0.9085977177013973  0.2184870284834517
  0.4291459267309676  0.0082807394828635  0.3942888805868776
  0.4015448711678644  0.1143997473169378  0.5053669755015164
  0.4027285826201137  0.1846699927546069  0.6038807367658379
  0.3990360739030052  0.3111964275687171  0.7023043667074234
  0.4162668785943922  0.4028595779558941  0.8077146637685075
  0.3988728039668530  0.5151904519313533  0.8886033926549857
  0.3858136847348632  0.6256156400851367  0.9836508889190796
  0.4101507983516726  0.6851276303038532  0.1171345315400956
  0.4073004786487360  0.7930010211474894  0.2191327491735748
  0.4176114685504686  0.8962099438482056  0.3208529561200919
  0.5155863886247332  0.0143300040755321  0.4882518004800076
  0.4966660263551148  0.0874946664855329  0.5989878146085204
  0.4723018425938506  0.2032328474392031  0.6844403577412521
  0.4901742245165934  0.2960894556898950  0.7691894824072847
  0.5070703826472851  0.4149428967984434  0.9121712416791183
  0.5029602404564599  0.4992588488882816  0.9994806389530382
  0.4854328759679376  0.6025227686455636  0.0918045944844437
  0.4931754050627148  0.6886257605397788  0.2112124416972350
  0.5048969813883986  0.7888974025268283  0.2810215106643099
  0.5201634157496713  0.8724849821129368  0.4146213612280931
  0.6283665937599068  0.0127495018792771  0.5874167056106501
  0.6056899207535196  0.0999587773400350  0.6985838486618690
  0.6191545568989696  0.2132679731014804  0.7722195258796347
  0.6108709495992386  0.2926531214056070  0.8739783331069120
  0.6178224118099891  0.4169236127337754  0.9917967984422376
  0.6016057546529012  0.4931873961871105  0.1115203269483303
  0.5824618838020186  0.5999278449486027  0.1971165951184162
  0.5763365190417957  0.6932785128832109  0.3063225648689070
  0.6055075030566499  0.7957127319657644  0.4077707874835852
  0.6190707462754190  0.9063863293030821  0.5206085423176177
  0.7046251831725741  0.9874948526015501  0.7040732971063690
  0.6935140995335800  0.1156520844088220  0.7887374763392643
  0.6856079518181417  0.1966237386224705  0.9076318665942154
  0.6908488742471590  0.3027915826653995  0.9750502794004419
  0.7025713109631866  0.3996913236426209  0.0967193162160953
  0.6719351591722145  0.5094439541728946  0.2194819363311140
  0.7004353923832838  0.6275563714169294  0.2811508662772297
  0.6935754326857761  0.6941160734501679  0.4150660403930644
  0.6918627487207374  0.7959918276502265  0.5233550133586888
  0.7208197228637445  0.9143623112801720  0.6099276026807985
  0.8008262124711294  0.9833576538513782  0.7863948163745889
  0.7856837956799367  0.0788353398541872  0.8630176017751197
  0.8213718172349758  0.1880834515237950  0.9786651351718518
  0.7664146687497180  0.2963108015215354  0.1214038418693093
  0.7841276280396698  0.3998521595797655  0.2158987981705351
  0.7909795358420482  0.5002461286962827  0.3034024163383577
  0.7808751922293169  0.5937819811619818  0.3672941484399743
  0.7700251750215088  0.6910204147987145  0.5036477181542338
  0.7943738020196562  0.7739065335325819  0.5980860698274668
  0.7895080967259887  0.8804171045600668  0.6880706212923968
  0.8945191785536366  0.0310801426436598  0.8909061694516112
  0.9110893442919874  0.1135276900783424  0.9859858977494014
  0.8756546687497178  0.2038480097812823  0.1016157931440489
  0.8856345849748664  0.2965346909387279  0.2228848698093557
  0.9141357193316111  0.4121215079472904  0.2753228442693469
  0.8949682647285258  0.4822248575827572  0.3842593429334755
  0.8892438672281884  0.6166153656658935  0.4971463827378528
  0.8962849834714461  0.6952970479554423  0.5872645709369166
  0.8926091595344872  0.8032565317212317  0.7315625540008170
  0.8832160512611509  0.8825818348956176  0.7888201317755730
  0.1142070864465907  0.1239729697051999  0.0135688063216080
  0.1235035878277415  0.2264795684463152  0.1192036906217453
  0.0866150043019545  0.3245648838473016  0.2253058746547083
  0.0678904600824168  0.4135554571389761  0.3009121278811762
  0.1132288058687649  0.5057206149526792  0.4039736779423109
  0.0967327727210971  0.6134888692659501  0.5071670506724644
  0.1100610759407701  0.7078351972105210  0.5888722859212976
  0.0853876334737151  0.7948433605035561  0.7143673441108547
  0.0944916084771066  0.9132690594574981  0.8012510926957361
  0.0826900566046262  0.9930885423176221  0.8945602246071616
  0.2133255187248082  0.1082336874518859  0.0895680446497309
  0.1968009926187548  0.2308780713671155  0.1923979703844552
  0.1723478811755683  0.2899323638092639  0.3041601467191981
  0.2210642797627145  0.3925095861069607  0.4056922845627824
  0.2122127826835154  0.4996927020785193  0.5123490132681283
  0.2292352270977673  0.5781392134220908  0.5877811542815721
  0.1787074767921055  0.7123964194176509  0.7014130801974403
  0.1942996377303814  0.8110970221437270  0.8080452338903257
  0.1887798899605997  0.8813468500656612  0.9014694570484068
  0.2148105814427410  0.9922685966580644  0.9930348317710482
  0.2997088651904178  0.1097254557804632  0.2101244486709248
  0.2873480464610765  0.2040855440836822  0.3021816053072470
  0.2840978829869130  0.3075967594982600  0.4124777109088456
  0.3311989897205976  0.4084665403251364  0.4904888144726698
  0.3357718462165451  0.5196529108363919  0.5741622465244731
  0.2903675478875130  0.6188038269256921  0.6754242358375251
  0.2847125811710356  0.7205399859620556  0.7989954023456960
  0.3021290064755675  0.8060546284472210  0.9141928696282235
  0.3255677548340330  0.9136000855861965  0.9840631046506374
  0.3403456708780510  0.0007305655934431  0.1075738355295925
  0.3882000738124347  0.0798661576778485  0.3114909871847118
  0.3862126260018997  0.2175279472897671  0.4111440506271791
  0.4005188067744427  0.2940632287279783  0.4999266693836901
  0.3872264859846908  0.3905645519177625  0.6212564887017180
  0.3892633419372373  0.5220202889100207  0.7089800756237850
  0.4081218059140497  0.6227527016256857  0.8056582090295734
  0.3824971199565255  0.7169761771498457  0.8906863297559227
  0.3821154390254975  0.7985335375628324  0.0089190182493297
  0.4080947330525717  0.9053241466286295  0.1174788583978597
  0.4287460734501636  0.0023945885975607  0.1983953086084327
  0.4919420223701465  0.1159297328261530  0.4160802572114264
  0.5040638242086644  0.1945532382375603  0.4918370090114550
  0.4964420957297477  0.3044334877507566  0.6047013630394389
  0.5039571987501716  0.4095362912647715  0.6976689761354891
  0.4884762618303640  0.4873233890322908  0.8051074958112565
  0.4879208418240282  0.5936656613684761  0.8885822207127632
  0.5085498482995945  0.6849044477652484  0.0063808495222588
  0.4984961708101281  0.8042113082461597  0.1081094638409610
  0.5189429135534098  0.8815890490422476  0.2347477122673567
  0.5383249368292340  0.9971293972739232  0.3041706434814131
  0.5933856876330239  0.0903508649187188  0.5123824453199290
  0.5828561477154395  0.1919483023139961  0.6093577068333076
  0.5949390177964986  0.3190569569351993  0.7008924915093075
  0.5825697667889358  0.4195201077752131  0.8092142811212213
  0.6080168930851784  0.5011429103835496  0.8899251935878283
  0.6045948439976456  0.5935253751754743  0.0066116637232270
  0.6083733297106377  0.7136158601639266  0.1030690771181426
  0.5886703785717486  0.7922006615948902  0.2178373622243370
  0.6103696060317887  0.9228112683965009  0.3126030113662068
  0.6069426110582796  0.0021920110492246  0.4026517918761030
  0.7092527364941361  0.0937742077616264  0.5953193261785117
  0.7100882203504995  0.2186937245845186  0.6765076579269120
  0.7078631250283038  0.3203858112575304  0.7989681814065150
  0.7001616700629469  0.4256475524158887  0.8968094923696981
  0.7089206298962978  0.5040180591405132  0.0136090703255931
  0.6901958388805838  0.5866069044061035  0.1129631780102329
  0.6835672576189822  0.6772257523887149  0.1973078082688033
  0.6952270533894875  0.7715760177512081  0.3077418167821406
  0.7103599624145289  0.8910001802291347  0.4163299121496209
  0.7237441004392551  0.9946042281392948  0.4951201612099823
  0.7841159910338291  0.0975086414889290  0.7002589774940020
  0.7752936869990492  0.2183153819680328  0.8001933229180835
  0.7727928895530525  0.3205210931485780  0.8939885119775397
  0.7810931051034729  0.4052755803106436  0.0183964887017183
  0.7729563456052162  0.5088697957705008  0.1212677213240951
  0.8065526445682210  0.6205959199384168  0.2096134981660072
  0.8171231060091486  0.7131843214237179  0.2724366105148732
  0.8040922931666898  0.7643592129692536  0.4027791839876826
  0.8084806941991545  0.8816212326223791  0.5080286777158918
  0.8017139220214631  0.0050391554589524  0.6020276502286848
  0.8950414404745715  0.1297994479916653  0.8164243970475056
  0.9050963034913764  0.2004795666349679  0.9149757483131822
  0.8807036788479792  0.3113702119277306  0.0098486790744019
  0.8616967522528611  0.4086138563600983  0.1097969035004311
  0.9131074147534335  0.4817410433365055  0.2013909029570229
  0.8837041543268569  0.5975600529819332  0.2909548109405407
  0.8734740479101575  0.6729705461214479  0.4002308277860820
  0.8973675949825690  0.7596987125843384  0.4974730643481422
  0.8987644269347470  0.8757940153058925  0.6001677580038915
  0.8951449409047711  0.9978678897794708  0.7097968523298448
  0.0121048657338250  0.1317835276004189  0.9056328949870931
  0.0044304184214070  0.2144392505547259  0.0082581723497697
  0.0004493071593501  0.3143691527419250  0.1180548344880705
  0.9794991803649893  0.4063522750532087  0.1979945668613894
  0.9810126047185648  0.5197837816419906  0.3213975198116188
  0.9985898627903822  0.5987656581986158  0.4036729860073365
  0.0069353792510043  0.6765410025811747  0.5034221650138093
  0.0040207508037895  0.7956564407009949  0.6034808585789975
  0.0077898827152083  0.8895131327265346  0.7245458198614330
  0.0037731318208571  0.9928861644704057  0.8044871548249759
  0.1939775035094868  0.2195863972286389  0.9956061300547958
  0.2437890028528713  0.2970798759226554  0.1211953104197789
  0.2026378512883227  0.4112689747769807  0.2153288882851072
  0.2041212294525181  0.4930210659783540  0.2934444051985707
  0.2081014735316771  0.5927836190734936  0.4137220323325650
  0.2246179291762900  0.7093567676493251  0.4963343390843633
  0.1998178938549984  0.8128251451342692  0.6060257301997041
  0.1940172041842132  0.8875864656070291  0.7061350455101234
  0.1591504618937662  0.9871318511977520  0.7844029185346173
  0.2092860367703651  0.1115407127654748  0.9042614400217346
  0.2902590019471987  0.2261335167323253  0.1173056917085518
  0.2803360929221554  0.3118471199565249  0.2325205633292597
  0.3016880043472341  0.4081110030340085  0.3272583566544398
  0.2905760702803093  0.4953815342118375  0.4075052044559158
  0.2980933088801336  0.5845590223248678  0.4891519136892626
  0.3121867581397453  0.6921518847076911  0.5807944536521319
  0.2931173839605137  0.8015768541411958  0.6950106403115512
  0.3229282058597107  0.8870738731150638  0.8008159715618319
  0.3046540868541427  0.9923044251234003  0.8894256265000209
  0.3150714205497422  0.0934234107684659  0.9950463854548772
  0.4284385563555659  0.2126327872118807  0.2092005406874051
  0.3987547570529344  0.3109457107277080  0.3008984177874368
  0.4210671887877524  0.3828272639587027  0.3987989553049829
  0.4208449404519286  0.5230161404700482  0.4889810655255147
  0.3920688805868764  0.6297516904406137  0.6305195965222126
  0.3907466218358024  0.7225156328397446  0.7150111058280118
  0.3953537132635958  0.8055513213784380  0.7867945799936606
  0.4284711977539288  0.8945495073133145  0.8903538165104408
  0.4195587741701772  0.9963954766109708  0.9940318004800091
  0.4186166725535472  0.1201925146039926  0.0935876561155666
  0.4992773413938352  0.1886005194040692  0.2987298596205221
  0.5000583919757275  0.3199361952633240  0.4016983091065498
  0.4653793941040618  0.4118599279989112  0.5101119381424652
  0.4700185785445825  0.4907944450482304  0.6061846302585678
  0.5033475112077141  0.6179507313317956  0.7079897106371433
  0.5151238382466161  0.6947285183172554  0.8008519725580783
  0.4721173314314200  0.7672793768962549  0.8714808920889396
  0.4867946515419135  0.8639584680523456  0.9939644826337002
  0.5058276144545601  0.0009463981343103  0.0814731336322083
  0.5139774890186999  0.1111460204682331  0.1959434972603376
  0.5823185115247043  0.2016540393062556  0.3884454041570464
  0.5747269895394638  0.3004922238826282  0.4977791368926319
  0.5674702454376686  0.3838391006656678  0.5693925915862863
  0.5894942525924947  0.4973840420232776  0.7003645120681057
  0.6058319870488589  0.5809848702621920  0.7838116084771087
  0.5835613653036305  0.6810768532355240  0.8971738377937797
  0.6245343431598940  0.8024256287642046  0.9890360852239297
  0.6137401734365824  0.8883712108862056  0.0802216148168284
  0.6075825952089815  0.9896047276185271  0.1689411434134840
  0.6001111692251939  0.1008719186704710  0.3163880645745607
  0.6913870280306114  0.1979852778155120  0.4964975410949606
  0.6963418896889024  0.3044204324593593  0.5919529185346164
  0.7048834048815849  0.3927743920662934  0.6784512670379925
  0.6788916410813783  0.4927221364850780  0.7691348322238838
  0.6774303803831003  0.6084600615858378  0.8936474699995500
  0.6992727387583244  0.7147871362586642  0.0055507517094568
  0.7159743259520894  0.8211297468641021  0.1047753425712088
  0.6972483539374181  0.9039790064755664  0.2214713480958181
  0.6730705058189557  0.0087701757007679  0.3059409124666033
  0.6923747973554342  0.0975798016573819  0.4214440642122881
  0.8453278512883244  0.1985533768056911  0.5986552248335855
  0.8007566594212747  0.3118444536521281  0.6848103898926752
  0.7930638233029939  0.4211127908345773  0.7974489707014456
  0.7792441285151455  0.5225371222207116  0.8667016374586751
  0.7914435407326934  0.5905735810351871  0.0016055046868644
  0.7890004338178684  0.6946741543268544  0.1123931531042004
  0.8146679998188660  0.7997256812933031  0.1997820662953416
  0.8243068292351552  0.8847441212697547  0.3240217538377905
  0.8106846261830398  0.9905723461486247  0.3917481084997476
  0.7871530702350213  0.1072226241905554  0.5010241448172792
  0.8766652769098400  0.1889439935697155  0.6857284472218481
  0.8653755916315689  0.3030514608522381  0.7874201788706259
  0.8877543744056524  0.4020693528958930  0.8887217796495008
  0.8738791260245407  0.4943224281121203  0.0004713616809298
  0.9173902775890923  0.6003057292940284  0.1116044287460909
  0.9216158959380536  0.7136168890096428  0.1799158778245697
  0.9302252139654925  0.7933576081148388  0.2927979106099698
  0.9073782022370125  0.8767385092605195  0.3940982022370179
  0.8898492505547253  0.9729071299189442  0.4755092279128732
  0.9093504138930371  0.0683631870669714  0.5914487121315020
  0.9811699587918312  0.2311799257347289  0.7763678127971758
  0.0066386260924673  0.3166005524611677  0.9091207535208099
  0.9831858787302465  0.3944257061993355  0.0268540877598156
  0.9965531150658862  0.4943340166644035  0.1016989131911430
  0.0047388375673592  0.6303287560566986  0.2001848915455327
  0.0051024412443965  0.6947031535570360  0.2936019105194063
  0.0028490245890538  0.7408284155232536  0.4146987488113041
  0.0032967422904520  0.8768451129828350  0.4560606937463234
  0.0217261757913292  0.9658625979260052  0.6048663908889225
  0.0027225186795263  0.0964778467599530  0.6912321858443136
  0.0614512620567851  0.2170455775936233  0.8945981420096913
  0.1043731875198119  0.3248006330661610  0.0215622564868880
  0.1031999130552919  0.3816283245030121  0.1046710619028204
  0.0767815201738884  0.5037616066657620  0.1924144513879469
  0.1009141923651669  0.5899508866548899  0.2894088647375810
  0.1270371702214348  0.6787686188470801  0.3969242643662554
  0.1009711760177510  0.8024323601865717  0.4826361531494783
  0.1044253516279525  0.8886178775528677  0.5875722659964708
  0.0949024733958268  0.0035008486165822  0.6897227097767527
  0.1051594493501824  0.0959953498166044  0.8182732635964314
  0.3434042104786457  0.3035514825884178  0.9807779907621281
  0.3208675275098472  0.4257048299596988  0.1043859679391375
  0.3066390286645841  0.5093155952542645  0.1904138803604596
  0.2786497658832587  0.5915360761671877  0.2803270067472710
  0.3254438060951870  0.7269225816238745  0.4054249658108020
  0.3347457673323362  0.8166971697686023  0.5013577738531936
  0.3124223746773538  0.9137267721776965  0.6005103894398403
  0.3109076411719442  0.9821915477969512  0.7090695874654713
  0.3026729796676193  0.0669700126794339  0.7994776072091625
  0.2759292944799157  0.2087437580944638  0.8888924412443941
  0.4034378929493272  0.2726201806819759  0.1104959683919731
  0.4029037073767157  0.3952704732146870  0.2032327876647173
  0.3867292623284868  0.4984246243716868  0.3188850255852884
  0.3772553421183744  0.6046719974641093  0.4028683068423646
  0.4011868020649345  0.6806919290857252  0.5158517357243113
  0.4245627799664931  0.8235374505275530  0.6061466512702083
  0.4077751686817948  0.8970923914323237  0.6914515631934037
  0.4270556360095981  0.9888986523570154  0.7957071955803130
  0.4123771448625675  0.1038031983879009  0.8997014676447961
  0.4030689059457515  0.2094540370420717  0.0011198523751332
  0.5112938246615073  0.3068115446270880  0.1766161250735863
  0.5092199356971463  0.4178431481229907  0.3069831381605752
  0.4840497445999219  0.5068480034415614  0.4128467436489629
  0.5132161622062199  0.6044864887017170  0.5158045881447251
  0.4973445446723730  0.6966690531177804  0.5854251849839258
  0.5215440017207840  0.7846328130235918  0.6768873092424030
  0.5298444106326130  0.8870248983380904  0.7560285817144390
  0.5059577412489276  0.0039684934112216  0.8938988556808383
  0.5001189412670399  0.1060309224290208  0.9961957211429606
  0.5021013096046758  0.2234934623918861  0.1108101113979103
  0.5957587655662735  0.3100402033238225  0.2932566639496414
  0.5803528700810574  0.4100608871077327  0.3984602377394353
  0.5560712376035895  0.4937842498754677  0.4938467907440085
  0.5740141629307587  0.5959361255264213  0.5974901562287727
  0.6044597550151707  0.6967469383688822  0.6935117964044721
  0.6151299366028198  0.7948796024090896  0.8215850233211057
  0.6043066259113345  0.8871830199701094  0.8907453842322184
  0.5846974428293237  0.9811729484218645  0.9812537132635981
  0.5932732264637934  0.0936671552778137  0.0921823665262878
  0.5822915899107883  0.1868420024453172  0.2236287248109434
  0.6834794950867149  0.2869376194357685  0.3991054204591791
  0.7032108078612538  0.4045965398723013  0.4896133274464489
  0.6777536625458467  0.4559024534709977  0.5932207449169056
  0.6746184309197147  0.6085417452338930  0.7030234356745027
  0.6826229941584003  0.7125679124213207  0.8053007055200823
  0.7067249350178884  0.7962169904451386  0.9016646230131755
  0.7108873486392255  0.9083734053344230  0.9820897400715509
  0.6709451315491535  0.0040087257166164  0.0918696572023734
  0.6824352089842876  0.0923591350812814  0.2231714142100287
  0.7024569428972498  0.1793510052981944  0.3485583879001979
  0.7997348095820342  0.2893419155006143  0.5005338146990894
  0.8108392491962135  0.4257930910655290  0.5929596454286070
  0.8101487220939205  0.5203061667345921  0.6728041507041596
  0.7848109314857581  0.5638715396458807  0.7946481248018813
  0.8050276760403960  0.6757535769596501  0.8760313394919166
  0.8150973386768072  0.8160987071502959  0.9884460050717720
  0.7916584091835333  0.8954587198297332  0.1112723556582011
  0.8038855010641655  0.9870420146719212  0.1988379232894104
  0.7830437762079399  0.0878032943893459  0.2781111493003650
  0.7965732803514030  0.1830121772404141  0.3945452805325331
  0.9098393714622119  0.3194588416428914  0.5858541072318104
  0.8872217103654378  0.4096820318797256  0.6626595322193509
  0.9114646913915649  0.4960406480097816  0.7816476950595472
  0.8883429574786064  0.5956197341846661  0.9015226024543779
  0.8912939813431180  0.6834655350269472  0.9954399578861555
  0.9211682538604364  0.7841592935742412  0.0765737757551079
  0.9285177978535515  0.9085578476656266  0.2149933405787223
  0.9079697364488553  0.9793262708871069  0.2739178802698916
  0.8919507168410092  0.0949862179051735  0.4018098374315073
  0.9476042045917694  0.1960001317755768  0.5056688647375793
  0.9911550491328143  0.3138073875832106  0.6812251723044866
  0.0096680319702926  0.3848666173074307  0.7724003187972670
  0.9924911493003634  0.4829890128152883  0.9136909482407276
  0.9929835343929696  0.5984076710591850  0.9935542249694365
  0.9933994987094152  0.7109420703708764  0.0519144314631177
  0.0091369487841320  0.7908169496898054  0.1859008875605639
  0.0391373092424061  0.8994705981977091  0.2918008436353787
  0.9835535017887054  0.9800760059774518  0.3592804034777899
  0.0086116931576328  0.0610884934112192  0.4943160381288791
  0.9999071349001483  0.1844599954716273  0.6224358343522169
  0.0865345999184868  0.2871869795770507  0.8041073119594273
  0.0907039863243213  0.4022806434814115  0.9122905443101033
  0.1067261391115366  0.4812047692795360  0.0102289761354868
  0.0846384522030519  0.6103789063985872  0.0818998378843432
  0.0827573726395840  0.6983312801702652  0.1955084911470379
  0.1077893207444660  0.7922728343069352  0.2878686192999140
  0.1090301974369439  0.8905511529230665  0.3944977915138352
  0.1342189308517874  0.9432808241633808  0.4729257695965217
  0.1038053729112889  0.0929694756147228  0.5798991427795173
  0.1020818955757790  0.1750513349635483  0.6777001580401247
  0.1951604025721139  0.3156045953901199  0.9226554440067005
  0.2387211339039084  0.4078243793868594  0.0293080319702952
  0.1842998342616511  0.4970085491101770  0.1041059584295638
  0.1689859579767230  0.5945821075035127  0.1727226318887816
  0.1903548593941053  0.6805828410994863  0.3156832830684237
  0.2105942910836376  0.7790078653262711  0.3968244559163168
  0.2243880170266692  0.8721517909704275  0.4930899633202017
  0.2050182294072371  0.0016361459040866  0.6016801485305407
  0.2211455010641643  0.1078132812570729  0.6946177330978571
  0.1919383901643812  0.1989122184485836  0.8093250301136621
  0.4386422207127652  0.4040719281800449  0.0069330036679816
  0.4163749467916489  0.5107020508988782  0.0893679400443759
  0.3737923103744976  0.5715975976995864  0.2070869428972486
  0.4004465208531442  0.6876706031789155  0.3017509772222979
  0.4244708264275658  0.7968688013403948  0.3974202409092982
  0.4083078707603107  0.9284184762034116  0.4999671213150378
  0.4161929823846364  0.0047006312548135  0.5897948779604221
  0.4079521776932467  0.1130498374315110  0.7120624607163890
  0.3840854684599009  0.1963273536204326  0.8232432889553039
  0.4205753661187330  0.2988325304532893  0.9018196816555744
  0.5124687229995928  0.3892174514332325  0.0959273395824809
  0.4999415862880952  0.4879806298962990  0.2117443988588477
  0.4846236996784867  0.5951663686999069  0.3022932776343765
  0.4962027115880971  0.6976859557125366  0.4080428646470153
  0.4977665607028001  0.7672373187519810  0.5222246845990099
  0.5238262559434830  0.9215123891681358  0.6131437109994096
  0.5201890594575005  0.0207246950142661  0.7069861567721745
  0.5055016582891838  0.1050351872481059  0.8015433455599350
  0.5056969963320199  0.2089142245165974  0.8940788343974972
  0.5069599058099001  0.2947950984920524  0.0060971349001520
  0.6106250880768016  0.4074167599510972  0.2193662296789398
  0.6009789974188280  0.5142694407462756  0.2955859231082769
  0.5853440071548235  0.5964081800480017  0.4007046116922552
  0.6143591645156903  0.6847697622605651  0.5138645252003826
  0.6058623855454428  0.7935871136168089  0.5994752415885500
  0.6232622718833483  0.8856707988045116  0.6894191572703008
  0.5936319571616195  0.0105665457591826  0.7772264665127011
  0.5855897400715477  0.1042204519313472  0.8908842362903613
  0.6027482416338330  0.1959424041117614  0.0020438088122106
  0.6098263320201056  0.3159469374632096  0.1003485826201143
  0.7050026504550999  0.3916331852556283  0.3269088094914636
  0.6724636512249234  0.5068909514105897  0.4107306326133227
  0.6762352017388977  0.5922262862835694  0.5162799913960967
  0.6821217343658006  0.7169169727844960  0.6102767762532295
  0.7089009808449944  0.7973647806004607  0.7107072766381393
  0.7012189978716634  0.9160990372684878  0.8081646669383673
  0.6959399882262360  0.9841613159443909  0.8647327238146971
  0.7008453647602195  0.0767027446452033  0.9682640103246811
  0.7037904600824163  0.1826252583435206  0.0858012969252400
  0.7191877607209136  0.2989898777340017  0.2164928863831932
  0.8017096807499016  0.4004548091291937  0.4064955304985745
  0.7967444821808627  0.5211671589005107  0.4925398184123537
  0.7907645682198989  0.6131591024770202  0.6124203373635808
  0.7947848227143055  0.6889917121767866  0.7065678992890483
  0.7843661173753560  0.7868948449033226  0.8029587343205193
  0.8054183158991108  0.8992399587918314  0.8840414744373533
  0.7834223615450782  0.9756439079835175  0.9782194846714702
  0.7878080967259891  0.0781740479101600  0.1146208214463584
  0.7992626124167899  0.1690427672870527  0.2121590997599938
  0.7904845274645638  0.2858277113616836  0.3257473613186619
  0.9020036824706779  0.4063084463161744  0.4938804695919927
  0.8939654829506836  0.5380322134673747  0.5943469207082401
  0.8951903754018957  0.6205345134266196  0.7218967336865489
  0.9080650464157927  0.6917188552280038  0.8021893637639792
  0.8978410813748141  0.7644557795589364  0.8730965077208737
  0.9038727124937722  0.8963962043200624  0.9687157800117703
  0.8889346039940236  0.9985110831861590  0.0998776117375328
  0.8704520912013791  0.1085077829099319  0.2152523592808961
  0.9061390911560920  0.2021654363084693  0.3096610080152189
  0.9098189765883262  0.3185877525698473  0.4159143168953463
  0.9891168468958043  0.4182171444097236  0.6042091631571793
  0.9967984395236158  0.5078164588144745  0.6885684829959686
  0.0067191713082480  0.6017158633337871  0.7922063741339471
  0.9892890567404820  0.6812002712493808  0.9075175053208326
  0.9847621056921625  0.8197423171670550  0.9756225580763456
  0.0055595113888529  0.8920021369379185  0.1051501883802004
  0.0067518887832279  0.0293338228501554  0.2058549576597386
  0.9806441977992151  0.1056385355250669  0.3092273210161665
  0.0133952415885545  0.1762429769505971  0.4143158443146291
  0.0084636009600132  0.3138922700720030  0.5083525363401691
  0.1146375207172952  0.4141380147624858  0.7059966648553200
  0.0848691237603560  0.4942342172712060  0.8066188833038979
  0.1130460172983732  0.5698432373318809  0.9274621917311947
  0.0796774188289646  0.7139063397183349  0.0040874849431702
  0.1265365086265433  0.8019250713218327  0.0878589543993087
  0.1132081026128731  0.8855108463523962  0.1894229574786053
  0.0961451849839250  0.0202559280894832  0.2959257714078731
  0.1234425259249221  0.0628389960603144  0.3930001901915503
  0.0789930466875006  0.1980504528370233  0.5110817859892194
  0.1039280840465509  0.3005041027034352  0.6329503726848742
  0.1765519838790013  0.3975325087171129  0.8128335669972344
  0.2064767178372477  0.4691493261785098  0.9161452207580467
  0.2104677584567298  0.5686321813159481  0.0080050260381270
  0.1969819721052417  0.6900759566182160  0.0671418996513182
  0.2082350450572861  0.7973395657292954  0.1973241144771976
  0.2080862011502091  0.8893956450663438  0.2921001376624588
  0.2145603704206849  0.0038967834986181  0.4015955920844121