Li 
 1.0000000000000000
    22.0829999999999984   -0.0000000000000006    0.0000000000000000
    -0.0000000000000006   22.0829999999999984    0.0000000000000000
     0.0000000000000006    0.0000000000000006   22.0829999999999984
 Li 
 500
Cartesian
 -0.1807733100000000  0.0026486900000000  0.2690407200000000
  0.0427181800000000  2.6033164200000001  1.9999086500000001
 -0.6419284200000001  4.5460218599999997  4.5239205900000004
 -0.5984908799999999  6.2811635299999997  6.6906775800000000
 -0.2060354200000000  9.1850097099999992  8.9978265600000000
  0.0396703900000000 11.3334183799999995 10.6631666599999999
 -0.4266544700000000 13.2847571799999997 12.8952336499999998
  0.0080644700000000 15.9081722299999999 15.1444287200000005
  0.2329184900000000 17.4611954199999992 18.5212526500000010
 -0.1896176000000000 19.7696928499999984 19.5608288700000017
  2.8297963099999999 -0.0095846000000000  1.9496673300000000
  2.3404667600000000  2.9309918599999998  4.5421156199999997
  1.8208254500000001  4.3370261599999997  6.6935487199999999
  1.8240874899999999  6.7467034100000003  8.9702156199999994
  1.8943673599999999  9.8640236800000007 11.6535809500000003
  2.3310837499999999 11.5104948000000000 13.1224117499999995
  2.0518295000000002 13.5357676199999997 15.0034716199999991
  2.1466974099999998 15.2742158000000003 17.8813469699999992
  1.8099989400000001 17.8921831599999983 19.6947817000000001
  1.9556283800000001 19.7200602600000003 22.0722159299999987
  5.1710926900000000  0.3485300100000000  4.6321283900000001
  4.4489332800000003  2.8999069999999998  6.6116787600000002
  4.0850102399999999  4.6286354799999998  9.1038071600000006
  3.8051991699999999  7.5684449599999999 11.1966807700000004
  4.8042743300000001  9.0606921299999996 13.7419975500000007
  4.8142920800000004 10.9091374200000004 15.0466502799999997
  3.8142774400000001 12.9627100800000008 17.2215312000000011
  4.2932258299999999 15.2147225699999993 19.6516066800000004
  4.0000176500000002 18.5177322999999987 -0.0901717300000000
  4.9881730800000001 20.1550155199999992  2.2673735800000001
  6.6792275200000004 -0.1077305000000000  6.6906024899999998
  6.5255669699999999  2.7167117200000002  9.3638499599999996
  5.6501698600000001  4.7490185399999998 11.5225423399999993
  6.6272094199999998  7.0698317099999999 13.4126568899999992
  6.6201863000000003  9.2107581599999993 15.4151546800000006
  6.4788699599999999 11.5272290799999997 17.4365496600000007
  6.1116028599999996 13.3384117599999996 20.2548600800000003
  6.4809762800000001 15.9384044599999992  0.0540165600000000
  6.7928896700000001 17.4587824800000000  2.2380510800000000
  6.9016083999999998 20.0645634000000008  4.8248490500000001
  9.4768294999999991  0.1828635700000000  8.7070813499999993
  8.8673153899999999  2.5262896200000000 11.1600189200000006
  8.8934552900000003  4.0780674499999998 13.3354983100000002
  8.8119136200000003  6.8721507099999997 15.5089873300000001
  9.1924214800000001  8.8963480599999993 17.8367629200000017
  8.8083081300000003 11.3769507500000007 19.6230287200000006
  8.5199236000000003 13.8154701800000002 -0.3610374200000000
  9.0573600800000005 15.1296734599999994  2.5866818600000001
  8.9944164700000009 17.5118415499999998  4.8391085000000000
  9.2221140599999991 19.7910041899999989  7.0853958300000004
 11.3856942199999995  0.3164494800000000 10.7820645099999997
 10.9678758599999995  1.9321447199999999 13.2274479100000004
 10.4298415900000006  4.4879909700000002 15.1144964200000000
 10.8245173999999995  6.5385434499999997 16.9860113400000010
 11.1976352600000002  9.1631839900000003 20.1434775299999984
 11.1068709900000009 11.0251331599999993 -0.0114690500000000
 10.7198142000000001 13.3055102999999999  2.0273208600000001
 10.8907924699999992 15.2069226700000009  4.6642043500000003
 11.1496400399999995 17.4212213399999989  6.2057980199999996
 11.4867687099999998 19.2670858600000017  9.1560835199999993
 13.8762194900000004  0.2815472500000000 12.9719231100000005
 13.3754505199999993  2.2073896799999999 15.4268271299999995
 13.6727900800000004  4.7095966499999999 17.0529237900000012
 13.4898631800000004  6.4626588800000002 19.3000635299999992
 13.6433723199999992  9.2069241399999999 -0.1811513000000000
 13.2852598799999999 10.8910572699999992  2.4627033800000002
 12.8625057799999993 13.2482065999999996  4.3529257699999997
 12.7272393499999996 15.3096694000000006  6.7645211999999999
 13.3714221900000005 17.5717242599999999  9.0048022999999997
 13.6709392899999997 20.0157293100000011 11.4965984399999996
 15.5602379200000005 -0.2761511700000000 15.5480506199999997
 15.3148718600000002  2.5539449799999998 17.4176896899999996
 15.1402804000000000  4.3420420200000001 20.0432345100000013
 15.2560156899999999  6.6865465200000003 -0.5509646800000000
 15.5148822600000003  8.8263835000000004  2.1358526599999998
 14.8383441200000004 11.2500508400000001  4.8468195999999999
 15.4677147700000006 13.8583273499999997  6.2086545800000001
 15.3162262800000004 15.3281652499999996  9.1659033700000005
 15.2784050800000006 17.5778875300000017 11.5572487600000002
 15.9178619399999999 20.1918629199999984 13.4690312500000005
 17.6846452499999991 -0.3675129300000000 17.3659567300000006
 17.3502552600000008  1.7409208100000000 19.0580177000000006
 18.1383538400000006  4.1534468599999999 -0.4711378200000000
 16.9247351299999984  6.5434314300000000  2.6809610400000001
 17.3158904100000015  8.8299352399999993  4.7676931600000003
 17.4672010899999997 11.0469352599999997  6.7000355599999999
 17.2440668700000010 13.1124874899999995  8.1109566799999993
 17.0044659399999993 15.2598038200000001 11.1220525600000002
 17.5421566700000007 17.0901779800000000 13.2075346800000002
 17.4347072999999995 19.4422509199999993 15.1946635299999997
 19.7536670200000017  0.6863427900000000 19.6738809400000001
 20.1195859900000009  2.5070319799999998 21.7735265799999986
 19.3370820499999994  4.5015755999999998  2.2439815599999999
 19.5574685399999986  6.5483755800000001  4.9219665800000003
 20.1868590899999987  9.1008792599999992  6.0799543700000003
 19.7635841899999996 10.6489715300000007  8.4855990699999992
 19.6371723200000012 13.6167171200000006 10.9784835699999999
 19.7926612900000016 15.3542447099999997 12.9685635200000000
 19.7114880700000015 17.7383139900000018 16.1550958800000011
 19.5040600600000005 19.4900546599999984 17.4195149700000016
  2.5220350900000001  2.7376950899999999  0.2996399500000000
  2.7273297300000001  5.0013483100000000  2.6323751000000000
  1.9127191400000001  7.1673663300000001  4.9754296299999998
  1.4992250300000001  9.1325451599999994  6.6450425199999996
  2.5004317199999999 11.1678283399999998  8.9209507299999995
  2.1361498200000000 13.5476747000000000 11.1997699799999992
  2.4304787399999999 15.6311246599999993 13.0040666900000002
  1.8856151100000000 17.5525259300000016 15.7753740600000008
  2.0866581900000001 20.1677206399999989 17.6940278800000002
  1.8260445199999999 21.9303742799999988 19.7545734400000015
  4.7108674300000004  2.3901245200000001  1.9779311300000000
  4.3459563200000000  5.0984804500000003  4.2487243799999996
  3.8059582600000001  6.4025763900000001  6.7167685199999996
  4.8817624899999998  8.6677891900000006  8.9589027199999993
  4.6862948800000002 11.0347139399999996 11.3142032599999993
  5.0622015200000003 12.7670482500000002 12.9799712300000003
  3.9463972100000002 15.7318501299999998 15.4893050500000005
  4.2907188999999999 17.9114555399999986 17.8440629000000008
  4.1688263100000000 19.4627824899999986 19.9071500199999996
  4.7436620700000001 21.9122674199999992 21.9291881900000014
  6.6184708700000003  2.4230672400000000  4.6401782000000003
  6.3455069100000001  4.5068210700000000  6.6730763900000003
  6.2737335500000002  6.7926592399999999  9.1087452899999999
  7.3138672900000001  9.0201666100000004 10.8314644900000001
  7.4148496799999997 11.4754952299999999 12.6792248900000004
  6.4121865600000003 13.6650449100000007 14.9153933999999992
  6.2873079299999999 15.9116845100000006 17.6442154699999989
  6.6719148500000003 17.8001043599999988 20.1881211399999998
  7.1895127299999997 20.1750306899999998 -0.3519344600000000
  7.5158534499999998 22.0991330800000014  2.3755530100000000
  8.5726222300000003  1.7636843600000001  6.8786554700000000
  8.5287334200000000  4.8036696599999997  9.0792940699999996
  8.8446568100000000  6.4937982800000000 11.0398806399999998
  8.5511224899999991  8.6248369999999994 13.7192070400000006
  8.5961023799999996 11.5277740400000006 15.6564070100000006
  9.0125538400000007 13.7522479099999995 17.7913502299999990
  8.4466839000000000 15.8329849199999995 19.6690262199999992
  8.4382552400000002 17.6340161100000010  0.1969586800000000
  9.0119559900000006 19.9922731300000009  2.5942856299999999
  9.4679995399999992 22.1358797000000003  4.3811635999999998
 10.8635556799999993  2.5600762900000000  9.1883003199999997
 11.1312414299999993  4.2963191600000004 10.8612366700000003
 10.9629308000000005  6.7228047100000001 13.3536201999999999
 11.1288868200000000  9.0437899200000000 15.4066240000000008
 10.7870212900000002 10.7615624000000007 17.7791888299999989
 10.7747559499999994 13.1099188000000009 19.6225611800000017
 11.2303063000000005 15.1247449199999995  0.1409083000000000
 11.0082909400000002 17.7593983199999990  2.3873812900000000
 11.4598163599999996 19.4681309700000007  5.1839337299999997
 11.8878295800000000 22.0196084799999987  6.7170003200000004
 13.1037361400000005  1.9952181499999999 11.3149415399999995
 12.8712123100000007  4.2387943600000000 13.4564462400000000
 13.1380383300000005  7.0457347800000001 15.4778088900000004
 12.8648881599999996  9.2642625400000007 17.8698789699999985
 13.4268370499999996 11.0667388899999999 19.6522180499999983
 13.3512679399999996 13.1068208599999991  0.1460053700000000
 13.4347082400000009 15.7587790400000003  2.2760744300000000
 12.9996079699999996 17.4941672100000005  4.8105024700000003
 13.4787920099999994 20.3784412400000008  6.9032122999999999
 13.4031136800000006 22.1314061799999990  8.8917595200000008
 15.6624281799999991  2.0708158299999999 13.1464366800000008
 15.6808781699999997  4.8294135200000001 14.9393186100000008
 15.6317413900000002  7.0750798699999997 17.6436143500000000
 15.4616701600000006  9.3995748999999993 19.8042440199999987
 15.6550942699999993 11.1302307999999996  0.3005291000000000
 15.2415947099999993 12.9540402700000001  2.4945658599999998
 15.0952157499999995 14.9551762900000007  4.3571483300000002
 15.3526990199999993 17.0387132000000001  6.7958625399999999
 15.6868790499999999 19.6759569799999987  9.1938134500000004
 15.9824409700000007 21.9638451699999990 10.9337385200000003
 17.3156334299999983  2.1532833299999998 15.4638190000000009
 17.1208104900000002  4.8210585799999999 17.6706691499999984
 17.0655853800000017  7.0780672999999998 19.7419483100000015
 17.2488790399999985  8.9497006399999997  0.4062496600000000
 17.0691949799999989 11.2373717000000006  2.6779550900000002
 17.8111020499999988 13.7046197000000003  4.6288948799999998
 18.0445295500000000 15.7492493699999994  6.0162176699999996
 17.7567701100000015 16.8793444999999984  8.8945727199999993
 17.8536791699999995 19.4688416800000006 11.2187972899999995
 17.7042485399999983 22.1942796700000002 13.2945765999999992
 19.7652001300000002  2.8663612100000000 18.0290999599999999
 19.9872416699999995  4.4271902699999996 20.2054094500000012
 19.4485793399999984  6.8759883899999998  0.2174883800000000
 19.0288493800000005  9.0234197900000002  2.4246450199999998
 20.1641510400000001 10.6382874600000008  4.4473153099999996
 19.5148388399999995 13.1959186499999994  6.4251550899999996
 19.2889273999999986 14.8612085700000005  8.8382973699999994
 19.8165686000000001 16.7764266699999993 10.9856976799999995
 19.8474148399999990 19.3401592399999984 13.2535045999999994
 19.7674857300000006 22.0359166100000010 15.6744438899999992
 22.3503117499999995  2.9101756399999998 19.9990912200000004
 22.1808369300000017  4.7354619700000002 22.2653652199999996
 22.0929220499999985  6.9422139999999999  2.6070049100000001
 21.6302804000000002  8.9734772899999999  4.3723140200000001
 21.6637013500000002 11.4783852500000005  7.0974214299999998
 22.0518599399999999 13.2225420299999996  8.9143105499999997
 22.2361539800000010 14.9400549599999994 11.1170716699999996
 22.1717902400000000 17.5704811800000016 13.3266677999999992
 22.2550239800000007 19.6431185100000008 16.0001453399999995
 22.1663220699999997 21.9259051700000001 17.7654898400000008
  4.2836052100000002  4.8491264100000002 -0.0970298300000000
  5.3835925500000004  6.5604148999999996  2.6763560399999999
  4.4748516699999996  9.0820527700000007  4.7551078400000000
  4.5076091099999998 10.8873841999999996  6.4801327999999998
  4.5955048400000003 13.0904406600000005  9.1362236400000008
  4.9602377300000002 15.6647254999999994 10.9605512100000002
  4.4125785500000001 17.9496176799999994 13.3828662000000005
  4.2844819200000002 19.6005719200000001 15.5935802100000007
  3.5145196500000000 -0.2841673300000000 17.3219696499999998
  4.6216635500000001  2.4631535599999999 19.9688053799999992
  6.4097895400000002  4.9937064500000004  2.5904615899999999
  6.1906619400000000  6.8865199500000003  5.1347516000000004
  6.6621762000000002  9.0123152799999993  7.2268462900000001
  6.4167913600000004 10.9395104199999995  8.9989374299999998
  6.5827945400000001 12.9088168900000007 10.8019417099999995
  6.8940201800000001 15.2847900699999997 12.8256839199999995
  6.4729111899999996 17.7012216699999989 15.3479199699999995
  7.1312235700000004 19.5892523400000016 17.6844190999999995
  6.7276762000000003 -0.1699413800000000 19.6411861099999996
  6.9577221800000002  2.0630691799999998 21.9736093299999986
  9.4612086400000006  4.6955698400000001  4.6197755400000000
  8.8057013000000008  6.8666141300000003  6.6447397600000002
  9.2984267299999992  8.4539744700000004  8.8066773299999994
  9.2935188199999992 11.5497654300000008 10.7981688699999996
  8.6580570899999998 13.9068065799999996 13.9237642499999996
  8.6288576500000005 15.9553127200000002 15.7895902499999998
  8.7305960500000008 17.7889898299999984 17.3747847100000001
  9.4619294600000003 19.7543367699999983 19.6616833299999989
  9.2651164099999992 -0.0795986900000000 -0.1317957500000000
  9.2443119800000009  2.6542113000000001  2.0666962099999999
 11.0255415299999999  4.1648652700000000  6.5968514899999997
 11.0427894700000007  7.0651510000000002  8.8707037599999996
 10.2769731600000007  9.0951027900000003 11.2648019300000009
 10.3794202700000007 10.8382137299999997 13.3863751900000008
 11.1154230900000002 13.6462059999999994 15.6345367799999995
 11.3754797199999995 15.3416898699999997 17.6852141100000004
 10.4257670299999994 16.9438304799999990 19.2449125400000014
 10.7498862899999992 19.0787948500000013 -0.1332823300000000
 11.1701912100000005  0.0208993100000000  1.7991712099999999
 11.3501648900000003  2.4544375700000001  4.3270202500000003
 12.8593396900000005  4.4531261500000001  8.5780398600000005
 12.6916961100000005  6.6357697800000004 10.9924566800000001
 12.5314454299999998  8.4763188599999992 12.5738965999999994
 13.0178015800000004 10.9837317999999993 15.4661495200000001
 13.3785877699999993 12.8298888899999994 17.3089117500000000
 12.8867856300000003 15.0402201499999997 19.8122898599999999
 13.7915919000000002 17.7199651600000010 -0.2421161300000000
 13.5532242499999995 19.6179014500000015  1.7715339200000000
 13.4172464500000004 -0.2295588000000000  3.7307272700000000
 13.2522549499999993  2.2275545800000001  6.9867976299999999
 15.2678997400000007  4.3721088899999998 10.9641552000000004
 15.3773179500000001  6.7225164099999999 13.0720963000000001
 15.5659402300000007  8.6736369000000000 14.9822393300000005
 14.9919641099999996 10.8807829399999996 16.9848044999999992
 14.9596950900000003 13.4366235399999994 19.7344170800000001
 15.4420398900000002 15.7846443300000008  0.1225772500000000
 15.8108610400000007 18.1330081999999990  2.3137538900000001
 15.3973353999999993 19.9625683999999985  4.8907517800000004
 14.8634159799999992  0.1936717900000000  6.7560931699999998
 15.2897126500000002  2.1548547600000001  9.3067492699999992
 18.6673749399999984  4.3846542199999998 13.2201033300000006
 17.6831093099999990  6.8864610700000002 15.1226678400000001
 17.5132284100000000  9.2994337599999994 17.6100656200000003
 17.2080480899999984 11.5391872699999993 19.1393722599999982
 17.4774477099999999 13.0416363900000007  0.0354543600000000
 17.4234965799999983 15.3404893500000004  2.4819779999999998
 17.9903134400000013 17.6603422200000004  4.4117873699999999
 18.2031677099999989 19.5378044300000013  7.1553723900000001
 17.9023485999999998 -0.2081908800000000  8.6509734799999993
 17.3827012500000002  2.3677972100000000 11.0641161900000000
 19.3593993100000006  4.1724502100000000 15.1429413000000004
 19.1100891900000001  6.6922854100000002 17.3885998099999988
 19.6042798500000011  8.8788975200000007 19.6256430600000016
 19.2978727399999990 10.9161221800000003  0.0104090800000000
 20.2587295000000012 13.2565514199999992  2.4645606000000000
 20.3520438299999995 15.7588017600000008  3.9730823300000000
 20.5421633999999997 17.5197160600000004  6.4658562599999998
 20.0376328400000006 19.3610165000000016  8.7028706000000007
 19.6505410000000005 -0.5982918500000000 10.5006702799999996
 20.0811851899999994  1.5096642600000001 13.0609619099999996
 -0.4158238000000000  5.1051463000000004 17.1445304100000016
  0.1466007800000000  6.9914899999999998 20.0761135999999993
 -0.3713062400000000  8.7101028700000001  0.5930188199999999
 -0.0761175600000000 10.9163780900000003  2.2458171000000000
  0.1046477500000000 13.9195499199999997  4.4206829599999997
  0.1126772100000000 15.3411297399999995  6.4836109899999999
  0.0629150100000000 16.3597138999999991  9.1577924700000004
  0.0728019600000000 19.3633706299999986 10.0711882999999993
  0.4797791400000000 -0.7538562500000000 13.3572645100000003
  0.0601213800000000  2.1305202900000002 15.2644803600000003
  1.3570282199999999  4.7930174900000004 19.7554107700000010
  2.3048731000000000  7.1725723800000001 22.5591593099999983
  2.2789636799999999  8.4274982900000008  2.3114510600000000
  1.6955663100000000 11.1245675599999991  4.2490883300000002
  2.2284881099999998 13.0278854299999995  6.3910159599999998
  2.8053618299999998 14.9892474100000008  8.7652785299999998
  2.2297464800000002 17.7201138100000009 10.6580541699999998
  2.3060250400000002 19.6233485899999991 12.9753583500000005
  2.0957313200000001  0.0773092400000000 15.2311466000000006
  2.3222361199999999  2.1198653099999998 18.0699284800000015
  7.5833951800000001  6.7033273900000001 -0.4244796300000000
  7.0857176099999997  9.4008397600000002  2.3051553299999998
  6.7715096700000004 11.2472162900000008  4.2049097199999999
  6.1534227799999996 13.0628911700000003  6.1904612900000000
  7.1867755700000000 16.0526313700000003  8.9529995200000005
  7.3921907800000000 18.0351235999999986 11.0714837199999998
  6.8992233000000001 20.1778283099999989 13.2610709300000007
  6.8657734399999999 -0.3932640500000000 15.6583836999999999
  6.6839274099999999  1.4788987899999999 17.6548639999999999
  6.0933466100000002  4.6096884100000004 19.6294117800000016
  8.9091189899999996  6.0202714500000001  2.4400824700000001
  8.8973225700000000  8.7287578600000000  4.4879896500000003
  8.5401422999999994 11.0067109799999994  7.0419380199999999
  8.3309297200000003 13.3529717199999993  8.8965408200000002
  8.8594081500000001 15.0317198699999999 11.3915538800000000
  9.3756198699999995 18.1861775200000011 13.3855365000000006
  9.0048990500000006 19.8104912800000008 15.2693248700000002
  9.4306696100000007 -0.2451510600000000 17.5716019999999986
  9.1065244900000000  2.2922860300000001 19.8681075100000015
  8.9009706499999997  4.6253735000000002 22.1077297000000002
 11.2909015299999993  6.7753193400000002  3.9002138899999999
 11.2451038400000005  9.2272302400000008  6.7791086399999996
 10.6892705100000001 11.1927244600000009  9.1168946399999999
 11.3333525099999992 13.3488751299999997 11.3905127200000003
 10.9828595799999995 15.3845427000000008 12.9279443599999997
 11.5172561899999994 17.3270464100000012 14.9477024499999995
 11.7005541199999996 19.5881708299999993 16.6953791699999989
 11.1730648000000006  0.0876362400000000 19.7399684300000011
 11.0441265800000004  2.3414808599999999 -0.0840098900000000
 11.0879032199999994  4.9354061299999996  2.4470196899999999
 13.1561408199999992  6.8466178099999997  6.4759869099999996
 12.8159324300000002  9.0553745699999997  8.7991974299999995
 12.2797211399999995 10.9042375899999993 10.9056186799999999
 12.6759547599999998 13.1600574600000009 13.1943751200000001
 13.3482847699999994 15.3862626400000000 15.3148210000000002
 13.5839143900000003 17.5533262599999986 18.1430620699999992
 13.3449032200000008 19.5916626299999983 19.6703303200000015
 12.9118736300000005 -0.4157577800000000 -0.4139742500000000
 13.1012526600000001  2.0684517900000001  2.0356632000000001
 12.8587451799999997  4.1260319399999998  4.9383931299999997
 15.0932776900000007  6.3364434500000000  8.8134449999999998
 15.5290042699999997  8.9347053899999995 10.8121311099999993
 14.9668341300000005 10.0676938800000002 13.1000937099999994
 14.8975988099999999 13.4384273600000004 15.5248665300000006
 15.0743635800000000 15.7356372100000002 17.7834554800000006
 15.6066067400000001 17.5828598000000014 19.9114598700000016
 15.6985253199999999 20.0596099099999989 -0.3955122700000000
 14.8164813399999993  0.0885246900000000  2.0287576399999998
 15.0702167199999995  2.0395667799999999  4.9282943399999999
 15.5123566700000008  3.9606082499999999  7.6972148799999998
 17.6605437999999992  6.3895375200000002 11.0532882299999997
 17.9057631400000012  9.4027888300000004 13.0943278500000009
 17.8905142300000009 11.4899210800000002 14.8575340600000008
 17.3309798000000015 12.4519752100000005 17.5482145400000000
 17.7774261699999983 14.9226662399999999 19.3454000700000002
 17.9997945299999991 18.0219077500000004 -0.2551468700000000
 17.4821926499999982 19.7744149100000008  2.4572274300000001
 17.7522035199999983 -0.2861511900000000  4.3909378600000002
 17.2919557099999999  1.9389601500000000  6.1415285099999997
 17.5907277499999992  4.0414579100000001  8.7127434299999997
 20.0919828400000000  7.0546096000000000 12.9374162500000001
 19.5925170299999998  9.0470083100000007 14.6335104499999993
 20.1278747799999991 10.9540656300000006 17.2611260500000014
 19.6172775299999991 13.1530705900000005 19.9083236300000017
 19.6824449900000005 15.0929694100000003 -0.1006994100000000
 20.3421585500000006 17.3165896799999999  1.6909786899999999
 20.5044585300000008 20.0636829500000005  4.7476979400000001
 20.0506956900000013 -0.4565379600000000  6.0489285500000003
 19.6969476800000010  2.0975806499999998  8.8731666400000009
 20.9259436500000007  4.3282709099999996 11.1666855399999996
 -0.1953230500000000  6.9298085399999998 15.0434954800000007
  0.2134991500000000  8.4990095100000005 17.0569162399999996
 -0.1658179500000000 10.6658463700000006 20.1770372100000017
 -0.1549446100000000 13.2146366000000004 -0.1423420500000000
 -0.1457588700000000 15.6997337399999992  1.1464263900000000
  0.2017712400000000 17.4636107000000003  4.1052492999999997
  0.8642692000000000 19.8630092199999986  6.4438380300000002
 -0.3631880200000000 -0.4399815600000000  7.9339891500000004
  0.1901720200000000  1.3490172000000000 10.9159810700000008
 -0.0020507400000000  4.0734300799999996 13.7452505299999999
  1.9109435699999999  6.3419500700000002 17.7571017699999985
  2.0030161299999998  8.8835634500000005 20.1461120899999990
  2.3568333300000002 10.6264449200000008  0.2258864800000000
  1.8690709400000001 13.4789973900000000  1.8085941200000000
  1.8275310600000001 15.4212496600000009  4.3174140100000002
  2.3803115699999999 17.4957610000000017  6.3570027199999997
  2.4077138499999999 19.6660411099999983  8.7116947299999996
  2.9639566500000001 -1.2525295599999999 10.4436197699999997
  2.2923340500000000  2.0530449300000000 12.8059127700000008
  2.2542745000000002  3.8656586300000000 14.9656525899999995
  4.3097271700000004  6.9694962800000004 20.3750001699999999
  5.2716788000000001  9.0059857700000006 22.7302092699999996
  4.0698932399999999 10.9754397899999994  2.2989718799999999
  3.7317169099999998 13.1301566800000007  3.8142338800000002
  4.2036063600000002 15.0293108800000006  6.9712339400000003
  4.6505537300000004 17.2028306899999990  8.7630744600000003
  4.9551605800000003 19.2597279999999991 10.8889056600000007
  4.5274175600000000  0.0361310100000000 13.2869027200000005
  4.8835560999999998  2.3808406899999999 15.3392434000000009
  4.2385754699999998  4.3925785199999998 17.8723246399999987
  9.6865361599999993  8.9231203899999993  0.1531015200000000
  9.1948079499999995 11.2778333899999996  1.9735122199999999
  8.2544555899999992 12.6225897499999995  4.5731009599999997
  8.8430605199999999 15.1858299300000006  6.6635668299999997
  9.3735892599999993 17.5972537399999993  8.7762311799999999
  9.0166627100000003 20.5022652100000009 11.0407739399999993
  9.1907896299999994  0.1038040400000000 13.0244402899999994
  9.0088079400000005  2.4964795600000000 15.7244753199999998
  8.4817593999999996  4.3354969499999996 18.1796815500000015
  9.2875658100000003  6.5991187699999996 19.9148840299999996
 11.3168468099999995  8.5950889799999999  2.1183634400000000
 11.0402100500000007 10.7760762499999991  4.6759515599999997
 10.7019451599999993 13.1430589199999996  6.6755424500000000
 10.9576444800000008 15.4069989599999992  9.0108105799999993
 10.9921789600000004 16.9429017100000010 11.5322877100000003
 11.5676552099999999 20.3497580900000017 13.5400525700000003
 11.4873349999999999  0.4576634400000000 15.6123753000000001
 11.1629931199999994  2.3194920400000001 17.7004817000000010
 11.1673067699999997  4.6134528200000000 19.7439429000000004
 11.1951955999999999  6.5099601600000003 22.2176430300000014
 13.4844338199999996  8.9969843100000002  4.8442644499999998
 13.2714192000000004 11.3566120599999998  6.5274239400000003
 12.9261517099999992 13.1704818400000008  8.8487599400000008
 13.5668934300000004 15.1217706599999993 11.3476703099999998
 13.3792590600000008 17.5247842300000016 13.2382117600000004
 13.7635007500000004 19.5582682500000011 15.2244432500000002
 13.1091745100000008  0.2333410300000000 17.1634920599999994
 12.9315782299999995  2.3015002400000002 19.6733965899999994
 13.3104894199999997  4.3269961099999996  0.0451334300000000
 13.4667948899999992  6.9770562199999997  2.2159977500000001
 15.5685735300000001  8.6484356299999998  7.2191272399999997
 14.8500148099999993 11.1936728799999994  9.0701645600000003
 14.9333019599999997 13.0781330800000006 11.4010110499999993
 15.0632942599999993 15.8316775100000005 13.4767420500000004
 15.6546603599999994 17.6082064500000008 15.6945487900000007
 15.4850191299999995 20.2302150400000009 17.8467003400000017
 15.3684427600000006 -0.3497656600000000 19.0958927400000000
 15.4767681899999996  1.6938267100000000 -0.7008258600000000
 15.5418047300000008  4.0329135799999998  1.8947500399999999
 15.8818233200000005  6.6025934700000004  4.7808124100000002
 17.7041548800000008  8.8432435500000004  8.9766408000000002
 17.5945083999999987 11.5089343700000004 10.8767568099999998
 17.4624539600000013 13.5403924599999996 13.5240783100000002
 17.5512332399999984 15.2150039800000005 15.6031389199999992
 17.3211569700000005 17.3769988600000005 17.7317377299999990
 17.7860526700000001 19.8579160100000003 19.5222878800000004
 17.3003160099999995 -0.5378555800000000 -0.4809791200000000
 17.3971662000000009  1.7263174999999999  2.5311716000000000
 17.6501162700000016  3.7329714300000001  4.6851094000000000
 17.4562698199999993  6.3119333500000003  7.1934789800000001
 19.9189473200000009  8.9725094199999997 10.9063624099999998
 19.7414397599999987 11.8813653699999993 13.1249630499999999
 19.7684890600000003 13.7032636599999993 15.9416455700000004
 20.0528004200000005 15.2752274799999999 17.7147477199999983
 19.8270246000000014 16.8814769799999986 19.2805901800000008
 19.9602211099999991 19.7951173800000007 -0.6908494300000000
 19.6303428599999990 -0.0328797500000000  2.2055973000000000
 19.2221935299999984  2.3961773700000002  4.7534178499999999
 20.0102695500000003  4.4644193300000001  6.8382440400000002
 20.0915324599999998  7.0353733399999996  9.1846358600000002
 -0.2403326700000000  9.2354892000000000 13.3427509499999992
 -0.0707000600000000 11.2141108599999999 15.2056578099999999
  0.1483794600000000 13.2876914100000008 17.4942933600000003
 -0.2365297600000000 15.0429455900000004 20.0407090699999983
 -0.3364984200000000 18.1023695899999986 -0.5383270500000000
  0.1227706900000000 19.6980831899999984  2.3220316099999998
  0.1491019600000000  0.6477788100000000  4.5458950299999996
 -0.4274341800000000  2.3328157799999998  6.8286669299999998
  0.2958071200000000  3.8919736600000001  9.1493367899999996
  0.1869017000000000  6.9316829999999996 11.2259490599999996
  2.5315403700000001  9.1454097799999996 15.5905243500000008
  1.8741648600000000 10.9141742199999996 17.8125648000000005
  2.4963951999999998 12.5838482099999993 20.4811475799999982
  1.7595164400000001 15.7651936999999993  0.0902639300000000
  2.7943057200000001 17.7089113500000011  1.9401892900000000
  2.4999745299999998 19.5547360200000000  4.1830271699999999
  2.1231741199999998  0.4473116600000000  6.5349288100000003
  2.7259812999999999  1.3876735499999999  8.6786232000000005
  1.7444034500000001  4.3735481500000004 11.2862190800000004
  2.2950438800000001  6.6360321000000004 13.9774430800000005
  3.8987974599999999  8.7787103900000005 17.9498036600000006
  4.5596253600000001 10.3602245699999997 20.2312349100000013
  4.6477595100000002 12.5571044599999997  0.1767749900000000
  4.3499528900000000 15.2389473500000001  1.4826945700000000
  4.5984544999999999 17.6076496300000009  4.3575084200000003
  4.5951675800000000 19.6405240300000017  6.4504473400000002
  4.7381366600000003  0.0860526700000000  8.8684354600000006