Li                                      
   1.00000000000000     
    20.6400000000000006    0.0000000000000000    0.0000000000000000
     0.0000000000000000   20.6400000000000006    0.0000000000000000
     0.0000000000000000    0.0000000000000000   20.6400000000000006
   Li
   432
Direct
  0.9976687572674408  0.0081688885658906  0.0079566031976768
  0.9028945721899220  0.0713405765503907  0.0938778628875951
  0.8302428633720922  0.1688842562984476  0.1841029132751970
  0.7545066390503905  0.2533215339147290  0.2545824035852746
  0.6563586637596899  0.3309041676356586  0.3262273488372074
  0.5748436191860478  0.4154519287790706  0.4209351443798468
  0.4991148221899238  0.5006583154069801  0.5062951080426359
  0.4177288260658898  0.5679408212209296  0.5750379263565861
  0.3159939544573618  0.6690583696705446  0.6592512349806228
  0.2366024171511611  0.7571963163759676  0.7539771918604643
  0.1609728250968985  0.8354494423449594  0.8418993032945750
  0.0820072180232572  0.9242251516472848  0.9274931719961259
  0.1020259641472876  0.9140985537790698  0.0915007432170540
  0.0039766957364336  0.0015387601744195  0.1689866245155045
  0.9010451778100759  0.0746039137596881  0.2566757354651159
  0.8206993667635629  0.1694072529069786  0.3461502102713183
  0.7555084820736440  0.2609019588178327  0.4130408875968996
  0.6738836516472873  0.3298672911821683  0.5129620053294559
  0.5737656845930204  0.4075994258720925  0.5851935935077535
  0.5032700712209319  0.5005796061046510  0.6456211797480620
  0.4158411375968996  0.5651328406007750  0.7460557843992248
  0.3235284123062030  0.6656513716085257  0.8262916526162769
  0.2536918168604672  0.7571878047480638  0.9180806715116248
  0.1695502267441853  0.8379836157945704  0.9917771070736450
  0.1691592218992213  0.8345514186046543  0.1591659011627939
  0.0828777495155038  0.9296146627906978  0.2584318730620154
  0.9912984215116296  0.9935807514534858  0.3398290988372068
  0.9181380891472841  0.0927318086240305  0.4155444190891444
  0.8386330368217045  0.1725341700581424  0.4909354496124010
  0.7611417446705460  0.2512281836240291  0.5860572708333365
  0.6781219253876003  0.3324742558139562  0.6738201773255810
  0.5837453682170519  0.4182230605620134  0.7439338580426380
  0.5077971855620120  0.4839971051356571  0.8208253144379825
  0.4028952422480643  0.5805777393410878  0.9102105145348816
  0.3287324171511656  0.6648105765503871  0.0002924331395349
  0.2728998052325551  0.7598382931201542  0.0841926787790683
  0.2579654491279086  0.7520195586240277  0.2474053095930202
  0.1699390920542641  0.8335716952519405  0.3484398464147276
  0.0824368246124010  0.9064875954457392  0.4259823231589124
  0.9994872698643391  0.0173512533914746  0.4827420421511661
  0.9337815402131753  0.1088744752906976  0.5777723376938013
  0.8449171894379859  0.1566682010658909  0.6562574249031030
  0.7669476768410846  0.2371185067829487  0.7505441676356597
  0.6757540276162786  0.3385516778100808  0.8377752829457350
  0.5938768091085294  0.4074260358527155  0.9236668696705408
  0.5054723318798438  0.4895474156976718  0.0063650581395365
  0.4203319467054243  0.5685662461240284  0.0925258585271322
  0.3440971729651139  0.6716988885658921  0.1681195760658909
  0.3372321012596871  0.6721812810077523  0.3432356996124000
  0.2436164365310063  0.7454266206395346  0.4276284433139566
  0.1799101632751956  0.8322321312984471  0.4994328643410881
  0.0756727422480594  0.9121597810077517  0.5744447887596920
  0.0064162054263548  0.9895509423449624  0.6587186099806175
  0.9235009767441866  0.0703291259689891  0.7538454568798443
  0.8377453575581413  0.1664540731589170  0.8366149597868215
  0.7690880804263571  0.2526654568798463  0.9339763977713176
  0.6548928168604675  0.3304152562984513  0.0114301918604625
  0.5777523716085256  0.4169569273255789  0.0932755067829447
  0.5047432751937961  0.5169235164728647  0.1686179665697694
  0.3982557170542620  0.5826952126937996  0.2539012999030987
  0.4188674161821737  0.5875426143410820  0.4248844302325594
  0.3224296346899251  0.6636977059108560  0.5105373134689941
  0.2515289859496121  0.7483128691860443  0.5758525600775215
  0.1548942887596922  0.8257670600775171  0.6649609108527130
  0.0824474578488363  0.9061766429263542  0.7513409127906954
  0.9920993609496094  0.9975306831395372  0.8354852519379818
  0.9199374282945740  0.0839101908914728  0.9154265397286849
  0.8302575809108532  0.1547695261627879  0.0092002349806179
  0.7405720610465139  0.2582800339147298  0.0965042252907011
  0.6549773575581384  0.3315869709302319  0.1776524350775190
  0.5692237311046497  0.4148069195736426  0.2528174399224810
  0.4853439045542629  0.5059514500969016  0.3288397606589157
  0.0735124331395340  0.0849273585271320  0.9070231162790705
  0.9821464345930266  0.1444397354651130  0.0121952228682147
  0.9248105058139515  0.2303007349806236  0.0847064418604617
  0.8367902073643378  0.3451054728682195  0.1537301264534889
  0.7478348376938015  0.4189367766472856  0.2519673071705455
  0.6625336099806205  0.4858511448643412  0.3370859481589150
  0.5750660174418627  0.5763787281976747  0.4161836453488377
  0.5011145813953490  0.6587357543604639  0.5033185474806174
  0.4187998149224796  0.7408959336240315  0.5960384912790673
  0.3275251492248046  0.8246474069767444  0.6559478672480594
  0.2412699467054296  0.9075389990310043  0.7414863313953504
  0.1778994273255847  0.9952288885658902  0.8525781187015511
  0.1755538875968981  0.0056430140503849  0.0114697073643413
  0.1001039055232553  0.0859423144379861  0.0894398556201565
  0.0014127233527148  0.1507386138565892  0.1736982529069735
  0.9097847688953493  0.2481850188953487  0.2497930983527112
  0.8277454641472843  0.3485350750968976  0.3293451497093045
  0.7479492819767444  0.4131589161821694  0.4331696080426326
  0.6615276153100780  0.4998850392441838  0.5100669820736456
  0.5822709956395329  0.5907254132751945  0.5820317562984485
  0.4991622005813952  0.6648234607558123  0.6719947514534894
  0.4011897698643381  0.7399512994186068  0.7461180484496097
  0.3270764781976752  0.8399683352713154  0.8377839064922483
  0.2545192432170538  0.9214424903100777  0.9102169132751925
  0.2554058406007726  0.9258387340116272  0.0716807020348824
  0.1798251802325552  0.0081052625968994  0.1753654733527128
  0.0843931007751948  0.0713037248061994  0.2570179384689908
  0.9965941128875997  0.1651576560077501  0.3359900998062031
  0.9204065479651149  0.2612529922480604  0.4147391719961249
  0.8409223793604639  0.3444254069767467  0.5038494428294555
  0.7628103081395352  0.4184060101744151  0.5792028992248035
  0.6663599961240294  0.4901041128876003  0.6633937315891458
  0.5795728221899239  0.5717779985465086  0.7548229467054242
  0.4996662204457394  0.6548489413759668  0.8304563798449607
  0.4180789079457341  0.7426661400193808  0.9054684176356602
  0.3370513498062024  0.8383089186046533  0.9960235421511641
  0.3414126346899238  0.8346069404069780  0.1475528483527100
  0.2613927398255811  0.9003760499031017  0.2512018163759677
  0.1748205082364365  0.9951727858527164  0.3495067233527109
  0.0823124500969001  0.0935996739341078  0.4161138963178317
  0.0009153115310099  0.1862484341085278  0.4979165978682190
  0.9163610406976730  0.2436916976744214  0.5675038657945706
  0.8349770164728696  0.3397063124999988  0.6607114486434114
  0.7532610532945725  0.4189393299418640  0.7600995402131758
  0.6496828062015538  0.4941605179263533  0.8302204428294573
  0.5832001797480615  0.5754985939922506  0.9064465125969008
  0.4956065111434143  0.6580056191860493  0.9988699205426386
  0.4321688197674405  0.7567082969961234  0.0798389515503857
  0.4131853556201577  0.7652700406976720  0.2487437364341076
  0.3415183953488352  0.8369517417635635  0.3329703401162760
  0.2675695920542651  0.9267632097868201  0.4246304423449629
  0.1668129016472903  0.0034253570736453  0.4923903003875978
  0.0892085339147286  0.0819271564922488  0.5790230048449629
  0.0156893783914711  0.1732829869186077  0.6652765455426390
  0.9209095348837195  0.2430377999030995  0.7469073381782962
  0.8321150891472868  0.3212286119186061  0.8456934752906946
  0.7529083691860450  0.4254365324612408  0.9250997088178323
  0.6531490440891474  0.4931684927325577  0.0139761308139512
  0.5726742388565924  0.5916016041666694  0.0940132088178274
  0.4945297248061991  0.6683084772286847  0.1760212538759660
  0.4849351031976710  0.6697257393410823  0.3440184471899244
  0.4061998992248093  0.7485610329457373  0.4295059370155059
  0.3396770605620176  0.8366643095930257  0.4989626254844950
  0.2435581220930203  0.9098512170542605  0.5786312412790693
  0.1651773047480631  0.0038621264534910  0.6587447136627915
  0.0866409026162813  0.0951194389534891  0.7380427621123999
  0.0081510227713153  0.1737390862403103  0.8352642873062024
  0.9198544423449633  0.2477686676356612  0.9255942432170556
  0.8386119568798449  0.3379180193798419  0.0076583231589140
  0.7471853323643387  0.4190548527131810  0.0858048856589164
  0.6648771749031042  0.5019906434108492  0.1711831031976772
  0.5787801598837206  0.5990494001937989  0.2576788997093047
  0.1579438183139530  0.1580199316860487  0.8271105455426380
  0.0759246031976772  0.2398448066860439  0.9183662533914756
  0.9842803066860455  0.3128083367248067  0.9990059510658895
  0.9311592630813976  0.4072837960271301  0.0826288498061984
  0.8409843236434114  0.5206191390503889  0.1464803207364369
  0.7527744563953505  0.5788318207364327  0.2455398309108503
  0.6579599612403086  0.6611632785852706  0.3329925833333363
  0.5694197795542664  0.7468732984496143  0.4190307034883745
  0.4999027398255791  0.8379012209302346  0.4974921719961216
  0.4190468905038784  0.9047017979651173  0.5999352097868211
  0.3357419559108550  0.9918133565891480  0.6610271686046545
  0.2384162248062012  0.0791117344961236  0.7431513091085264
  0.2576304084302308  0.0826529937015508  0.9137906894379810
  0.1660265150193823  0.1652922257751968  0.9912881545542618
  0.0859285508720902  0.2469690823643376  0.0766770712209279
  0.0107812718023226  0.3248816584302290  0.1817420566860477
  0.9260238502906972  0.4257883367248070  0.2492472960271286
  0.8442695450581397  0.5104086124031042  0.3201529733527124
  0.7412029084302318  0.5874634709302313  0.4228083221899226
  0.6668369205426359  0.6735588531976759  0.5099448115310068
  0.5908016937984470  0.7590107611434078  0.5871748047480594
  0.5036423454457335  0.8263672819767436  0.6722595605620185
  0.4256007233527157  0.8939845765503875  0.7370457189922490
  0.3340239874030999  0.9753744714147317  0.8027570377906983
  0.3349037727713196  0.9985408953488388  0.9975902718023235
  0.2595215295542630  0.0889523556201581  0.0789111472868242
  0.1753990654069781  0.1778206342054247  0.1691764820736452
  0.0824744341085264  0.2542823590116257  0.2493199568798445
  0.9915730523255846  0.3267732422480591  0.3169105678294599
  0.9143178822674400  0.4117677843992240  0.4122481424418609
  0.8341496967054240  0.5143577611434083  0.4918139893410824
  0.7481522146317801  0.5910798008720946  0.5948282979651154
  0.6578870896317852  0.6660396317829438  0.6690160179263600
  0.5854156027131765  0.7458531928294576  0.7531068173449640
  0.5089599021317852  0.8226258023255824  0.8182748556201531
  0.4228651254844991  0.9250995760658896  0.9162397955426371
  0.4214586031976779  0.9263438720930210  0.0749454006782955
  0.3357638289728655  0.9980506705426322  0.1650278275193813
  0.2495507194767441  0.0856331477713184  0.2550442718023263
  0.1797907771317853  0.1704446531007733  0.3161073570736406
  0.0956411225775184  0.2574388594961263  0.4148555135658896
  0.9966064224806175  0.3314989011627887  0.4998487378875964
  0.9247371342054294  0.4359538851744205  0.5799059757751905
  0.8431670494186037  0.4933468541666670  0.6725571603682141
  0.7434838352713200  0.5899207005813949  0.7420709568798429
  0.6627997824612422  0.6509151637596915  0.8250161075581417
  0.5938108793604684  0.7357439520348805  0.8977967281976760
  0.4966297286821728  0.8239295901162791  0.9781781647286820
  0.5004359922480646  0.8242514278100757  0.1606783071705422
  0.4152890906007727  0.9092606405038737  0.2544184956395341
  0.3427846792635663  0.0052487296511643  0.3265672698643414
  0.2627475382751925  0.0913174394379865  0.4193395494186021
  0.1724490247093016  0.1696960799418576  0.4959688720930231
  0.0955814573643394  0.2554085000000015  0.5723185915697684
  0.9850078502906996  0.3296422829457342  0.6591776618217082
  0.9214977354651168  0.4206677727713171  0.7697839123062025
  0.8336755237403111  0.5119820562015533  0.8245150416666647
  0.7460884554263600  0.5742168309108493  0.9195735208333318
  0.6688207703488374  0.6557882204457357  0.0071194830426364
  0.5893835503875948  0.7391489404069773  0.0879364137596923
  0.5786010687984486  0.7328812664728659  0.2578353633720951
  0.4993383449612381  0.8264060121124004  0.3327284026162758
  0.4205540930232559  0.9329691729651159  0.4208325998062037
  0.3351933391472883  0.0035592146317853  0.5062074302325570
  0.2527580765503856  0.0731716114341054  0.5879059525193782
  0.1762281686046521  0.1644197969961212  0.6613031114341084
  0.0780748454457338  0.2646097756782950  0.7509537141472862
  0.9961891056201537  0.3259490823643389  0.8426311618217071
  0.9142896773255842  0.4162778788759667  0.9110180387596927
  0.8480445528100802  0.4842958638565875  0.0046446700581413
  0.7372134970930233  0.5861443313953458  0.0769913938953479
  0.6729612320736464  0.6601684031007764  0.1626293687015519
  0.2411189573643426  0.2544491201550372  0.7483655770348818
  0.1739877102713194  0.3438625387596872  0.8458825755813919
  0.0740878032945744  0.4071377524224786  0.9260941608527133
  0.0014892446705446  0.4807273018410854  0.0031558909883742
  0.9205774336240324  0.5981194161821719  0.0868852388565884
  0.8467997407945731  0.6546246996124054  0.1587786254844943
  0.7536210571705411  0.7500754709302342  0.2566659452519389
  0.6631699733527157  0.8259353217054297  0.3485862722868234
  0.5742827248062028  0.9324408003875959  0.4191235615310092
  0.4975143968023232  0.0000146506782954  0.5043302243217056
  0.4209455605620178  0.0864377877907003  0.5790652388565860
  0.3216089563953517  0.1689001143410849  0.6487648202519409
  0.3323760818798434  0.1487263187984524  0.8208729258720950
  0.2575571216085280  0.2280531191860433  0.8956624777131807
  0.1680295591085255  0.3321872965116270  0.9840733217054236
  0.0723715310077537  0.4073874903100787  0.0845929127906970
  0.0087331845930265  0.4990407204457341  0.1632796734496154
  0.9465445944767410  0.5923009229651157  0.2423829137596911
  0.8339073221899227  0.6633250290697674  0.3266522383720911
  0.7582003793604670  0.7450403459302350  0.4263779229651163
  0.6643070736434140  0.8359999408914760  0.5065687374031000
  0.5810778769379823  0.9183998309108503  0.5961249864341056
  0.4927662204457377  0.0007568343023223  0.6835615993217061
  0.4006587112403110  0.0801906419573655  0.7405333541666650
  0.4129509370155020  0.0753969593023243  0.9008212873062007
  0.3380337669573663  0.1593099321705438  0.9851130169573636
  0.2586754384689911  0.2557531482558133  0.0762855174418604
  0.1891386080426329  0.3180297504844987  0.1783279820736468
  0.0967840557170518  0.4118341656976767  0.2544611017441838
  0.0052800184108506  0.5017972185077539  0.3328288120155065
  0.9213065595930203  0.5934388551356591  0.4046820227713184
  0.8359121841085297  0.6415734040697672  0.5082691632751946
  0.7590682926356607  0.7436655479651151  0.5826226264534853
  0.6856494743217070  0.8323432218992224  0.6634912189922488
  0.5926424743217069  0.9097018435077544  0.7354066637596901
  0.4983930765503857  0.9762249045542646  0.8111251816860445
  0.4968655348837174  0.9946207698643406  0.0016692902131794
  0.4274506676356609  0.0880179147286810  0.0798140222868184
  0.3380674699612385  0.1623691782945755  0.1605042625969020
  0.2577670087209327  0.2579293580426381  0.2414131710271334
  0.1808895436046498  0.3425401293604651  0.3203526056201582
  0.0674033565891463  0.4097986443798476  0.4118606695736418
  0.9971521627906981  0.5067216782945749  0.5017460683139561
  0.9210123875968961  0.5904472320736431  0.5857792969961224
  0.8440935760658945  0.6730297805232581  0.6686675096899251
  0.7509182359496123  0.7476849907945748  0.7393348706395315
  0.6755093444767439  0.8285644956395330  0.8367417010658897
  0.5804100634689888  0.9106619355620182  0.8989486715116257
  0.5791355954457345  0.9127807926356581  0.0779919282945727
  0.4955827059108557  0.9941317877906997  0.1770691361434089
  0.4288827679263534  0.0939049181201526  0.2588346041666654
  0.3387064699612381  0.1631120222868248  0.3497500634689956
  0.2591006385658901  0.2544105392441836  0.4095236661821673
  0.1808573018410868  0.3307186133720919  0.4810393565891502
  0.0808407553294543  0.4028702906976775  0.5790341632751961
  0.0042824743217054  0.4859076700581397  0.6637407233527099
  0.9230387102713209  0.5828254927325602  0.7507401322674383
  0.8379166981589137  0.6684142102713153  0.8242012306201545
  0.7489997427325576  0.7485261245155073  0.9068389859496122
  0.6566282519379811  0.8193322722868217  0.9799419534883711
  0.6454674801356575  0.8402405145348837  0.1756617097868229
  0.5762210508720926  0.9081983037790664  0.2584480271317844
  0.5012913565891495  0.9941761419573609  0.3404677863372072
  0.4357123517441863  0.0790754849806206  0.4154338124999981
  0.3354379534883734  0.1683196928294564  0.4975473963178274
  0.2369050513565867  0.2462894370155055  0.5826111458333330
  0.1752417364341099  0.3463895121124025  0.6711936109496150
  0.0685288590116286  0.4062092427325581  0.7593907427325561
  0.0023867054263533  0.5184064205426324  0.8435827335271284
  0.9261309588178293  0.5869454544573642  0.9257412272286842
  0.8271928687015517  0.6698143372093028  0.0034570673449608
  0.7399650174418611  0.7690342480620131  0.0819020644379833
  0.3109573352713184  0.3295878144379856  0.6645239399224820
  0.2268646177325593  0.4225049442829487  0.7382094040697638
  0.1546458507751964  0.4962153628875967  0.8499283352713149
  0.0828396937984479  0.5900870692829443  0.9461474093992237
  0.0034780411821700  0.6773865998062050  0.9967815140503902
  0.9135422553294603  0.7572852543604682  0.0834994447674404
  0.8406652349806194  0.8464700915697705  0.1759940973837217
  0.7448736438953460  0.9081188304263534  0.2622377708333303
  0.6515548638565889  0.0004501104651169  0.3384951371124032
  0.5810895658914745  0.0851157403100800  0.4095039098837177
  0.5032307320736464  0.1830184481589114  0.5033337533914732
  0.3969711724806189  0.2483805528100760  0.5887854709302331
  0.4083159103682164  0.2479957335271337  0.7673775310077531
  0.3171735281007741  0.3424532199612429  0.8306303977713156
  0.2684894186046520  0.4233331652131795  0.9232967160852681
  0.1727518691860439  0.5001420460271291  0.0086255198643386
  0.0846998493217086  0.5866421545542622  0.0764740348837236
  0.0202488498062010  0.6696944195736450  0.1499688362403120
  0.9172975968992247  0.7549629491279077  0.2496594399224819
  0.8356131002907006  0.8313177233527114  0.3427795062984487
  0.7540365673449614  0.9219326017441887  0.4391543594961220
  0.6561431962209312  0.9996406855620137  0.5117810377906977
  0.5735066099806190  0.0891578449612425  0.5909842906976763
  0.4922141477713211  0.1602985663759711  0.6750724646317821
  0.5066068536821717  0.1544010019379840  0.8325215460271309
  0.4095711516472846  0.2516510038759705  0.9135594006782952
  0.3148638580426351  0.3288937989341107  0.9942692005813925
  0.2501697994186074  0.4085628270348849  0.0812630334302327
  0.1517731094961263  0.5136308473837232  0.1616866424418575
  0.0881777718023287  0.5962480712209270  0.2430254287790703
  0.0144382558139569  0.6887172388565901  0.3393588134689907
  0.9155806807170563  0.7482834176356619  0.4144355348837223
  0.8470541230620157  0.8359005436046516  0.4981047664728706
  0.7502418057170530  0.9160747902131803  0.5816759752907004
  0.6843913163759723  0.0039286826550367  0.6635417984496144
  0.6005672315891459  0.0852514539728659  0.7365390741279043
  0.5877226182170574  0.0657256477713162  0.9206566637596865
  0.4969994840116243  0.1586206719961254  0.9978731453488408
  0.4167660678294567  0.2494093008720952  0.0823017374030997
  0.3345812587209309  0.3491419224806194  0.1635595746123997
  0.2465328740310042  0.4372194350775160  0.2446263774224775
  0.1573310867248097  0.5088559922480584  0.3255374772286856
  0.0676912180232563  0.5817613507751958  0.4301777582364323
  0.9965087669573620  0.6674100281007753  0.4993548982558167
  0.9308511283914740  0.7407477558139561  0.5773905038759679
  0.8484536555232580  0.8401987189922480  0.6638342427325554
  0.7571587252907008  0.9274423648255805  0.7377566317829434
  0.6713356220930251  0.0003570562015511  0.8229011879844990
  0.6658419510658931  0.0104329999999990  0.9972757543604658
  0.5766001472868183  0.0703022693798445  0.0945881671511657
  0.4969420237403099  0.1703204127906943  0.1757529040697676
  0.4037657863372104  0.2317574941860485  0.2625793754844992
  0.3340708638565886  0.3441534738372098  0.3286017257751936
  0.2390954844961257  0.4160633735465140  0.3925932146317805
  0.1626317805232560  0.4824176613372089  0.4860580334302327
  0.0653566085271322  0.5803183812984472  0.5791396259689918
  0.9980258924418592  0.6705507829457389  0.6631364001937996
  0.9330435164728712  0.7605112718023221  0.7518806342054276
  0.8398484985465089  0.8388519074612404  0.8251550712209337
  0.7548206395348842  0.9285908250968973  0.9065637422480606
  0.7334526797480621  0.9051944476744183  0.0770196065891469
  0.6620024360465138  0.0024226453488367  0.1779840281007736
  0.5673678439922512  0.0905456666666637  0.2612493633720945
  0.5033767044573665  0.1743441191860455  0.3521800939922457
  0.4002988212209289  0.2684539815891469  0.4251875038759678
  0.3188823682170536  0.3472834631782931  0.4882291647286792
  0.2264260387596906  0.4178018507751915  0.5749393919573649
  0.1497809176356597  0.5002918948643398  0.6708758885658881
  0.0760190726744199  0.5886354437984522  0.7485188798449585
  0.0000706555232526  0.6698841884689912  0.8329936589147309
  0.9341798081395325  0.7435384874031001  0.9260799907945767
  0.8322454156976775  0.8312057877907009  0.0004236269379874
  0.4104551952519344  0.4112288948643439  0.5853028856589120
  0.3183132340116259  0.5006472877906987  0.6587445300387600
  0.2438467412790715  0.5827625014534874  0.7355098541666649
  0.1706998134689925  0.6640327504844947  0.8486749728682170
  0.0817515053294571  0.7539298192829449  0.9239941487403129
  0.9962246870155056  0.8388995639534897  0.0034081734496141
  0.9164912965116301  0.9266421153100808  0.0747156133720921
  0.8218875862403081  0.9771808716085246  0.1835739045542653
  0.7303380397286787  0.0740242209302338  0.2471276327519405
  0.6721926981589164  0.1656875828488396  0.3205742466085297
  0.5764799656007753  0.2555704941860455  0.3998794510658925
  0.4897937596899240  0.3372235591085300  0.5069959534883708
  0.4874671342054242  0.3233149874031014  0.6789718788759700
  0.4090785973837185  0.4277735731589161  0.7523132000968999
  0.3128817374031030  0.4992366356589173  0.8303225455426357
  0.2380623527131789  0.5862818488372099  0.9112790925387628
  0.1939179937015538  0.6767003473837221  0.0049798522286792
  0.0917820993217049  0.7562014907945738  0.0721791933139500
  0.0054553643410884  0.8388628788759718  0.1610513221899197
  0.9090107107558154  0.9172987732558155  0.2572060736434096
  0.8269233909883695  0.9966260915697660  0.3420465673449584
  0.7518413081395323  0.0823843498062047  0.4234627301356610
  0.6536798498062026  0.1828753909883716  0.4878749142441876
  0.5781844835271315  0.2554995988372113  0.6008276448643386
  0.5996238536821679  0.2533932611434082  0.7516947136627934
  0.5054749350775225  0.3465431705426383  0.8305850431201520
  0.4093885639534918  0.4145481845930234  0.9215852306201526
  0.3306322156007724  0.4997834762596867  0.0109812034883703
  0.2534762562984483  0.5925556661821716  0.0944847558139514
  0.1681918149224799  0.6795983740310092  0.1547006497093051
  0.0906728047480598  0.7530661642441885  0.2539471676356584
  0.0069389733527103  0.8326395135658942  0.3360679442829451
  0.9149551046511633  0.9146662000968959  0.4197131971899211
  0.8434086729651185  0.0124517466085265  0.4963834089147312
  0.7374261923449623  0.0958050145348821  0.5652192848837174
  0.6852722335271295  0.1747866128875941  0.6635055610465130
  0.6714718212209334  0.1601308013565870  0.8348218793604616
  0.5783593730620140  0.2442580218023238  0.9081649854651133
  0.4978608837209322  0.3346603217054280  0.0069742592054283
  0.4282956598837231  0.4157573793604641  0.0793919685077498
  0.3294626850775160  0.5113363149224810  0.1720056443798441
  0.2463549694767408  0.5887903774224839  0.2514781414728660
  0.1567667834302355  0.6724789593023246  0.3482003163759657
  0.0896507156007758  0.7562970281007750  0.4264721947674417
  0.0012985169573625  0.8324123522286797  0.4885781652131769
  0.9334660518410871  0.9229551952519373  0.5771297877906960
  0.8441781283914693  0.0134671782945759  0.6543599777131774
  0.7615564646317807  0.0840014423449631  0.7447332311046537
  0.7640663425387615  0.0799791661821700  0.9183225058139541
  0.6592021686046508  0.1578462223837178  0.0070173711240287
  0.5776094651162822  0.2274269200581429  0.0914094345930252
  0.4847856787790690  0.3266534321705450  0.1697770600775215
  0.4235733749999966  0.4217185736434104  0.2373102301356624
  0.3356869437984500  0.4941850218023234  0.3197338687015474
  0.2414429350775222  0.5850002446705460  0.4201131879844979
  0.1577553192829484  0.6594450537790664  0.5009894210271284
  0.0811160353682183  0.7534444854651170  0.5553506327519386
  0.0050525712209293  0.8278011710271329  0.6738593812984490
  0.9127660968992259  0.9184210770348855  0.7476997441860433
  0.8429578934108548  0.0089368120155058  0.8287093449612399
  0.8403647824612435  0.0095053842054256  0.0018117049418578
  0.7497111157945753  0.0786117034883702  0.0933970823643406
  0.6642762722868198  0.1612498808139549  0.1712307030038787
  0.5681039273255806  0.2358303517441840  0.2626591618217020
  0.4967755605620141  0.3462193808139560  0.3251508304263595
  0.4208660121124055  0.4220485184108540  0.4084373192829460
  0.3165645828488337  0.5042482558139554  0.4960109302325577
  0.2291030455426366  0.5660299544573633  0.5793638565891470
  0.1617801196705457  0.6815712664728650  0.6562329350775187
  0.0782072160852678  0.7470329137596892  0.7634597068798428
  0.0012730484496117  0.8524283313953518  0.8337836230620184
  0.9088566560077496  0.9162359486434113  0.9168146758720894
 
  0.00000000E+00  0.00000000E+00  0.00000000E+00
  0.00000000E+00  0.00000000E+00  0.00000000E+00
  0.00000000E+00  0.00000000E+00  0.00000000E+00
  0.00000000E+00  0.00000000E+00  0.00000000E+00
  0.00000000E+00  0.00000000E+00  0.00000000E+00
  0.00000000E+00  0.00000000E+00  0.00000000E+00
  0.00000000E+00  0.00000000E+00  0.00000000E+00
  0.00000000E+00  0.00000000E+00  0.00000000E+00
  0.00000000E+00  0.00000000E+00  0.00000000E+00
  0.00000000E+00  0.00000000E+00  0.00000000E+00
  0.00000000E+00  0.00000000E+00  0.00000000E+00
  0.00000000E+00  0.00000000E+00  0.00000000E+00
  0.00000000E+00  0.00000000E+00  0.00000000E+00
  0.00000000E+00  0.00000000E+00  0.00000000E+00
  0.00000000E+00  0.00000000E+00  0.00000000E+00
  0.00000000E+00  0.00000000E+00  0.00000000E+00
  0.00000000E+00  0.00000000E+00  0.00000000E+00
  0.00000000E+00  0.00000000E+00  0.00000000E+00
  0.00000000E+00  0.00000000E+00  0.00000000E+00
  0.00000000E+00  0.00000000E+00  0.00000000E+00
  0.00000000E+00  0.00000000E+00  0.00000000E+00
  0.00000000E+00  0.00000000E+00  0.00000000E+00
  0.00000000E+00  0.00000000E+00  0.00000000E+00
  0.00000000E+00  0.00000000E+00  0.00000000E+00
  0.00000000E+00  0.00000000E+00  0.00000000E+00
  0.00000000E+00  0.00000000E+00  0.00000000E+00
  0.00000000E+00  0.00000000E+00  0.00000000E+00
  0.00000000E+00  0.00000000E+00  0.00000000E+00
  0.00000000E+00  0.00000000E+00  0.00000000E+00
  0.00000000E+00  0.00000000E+00  0.00000000E+00
  0.00000000E+00  0.00000000E+00  0.00000000E+00
  0.00000000E+00  0.00000000E+00  0.00000000E+00
  0.00000000E+00  0.00000000E+00  0.00000000E+00
  0.00000000E+00  0.00000000E+00  0.00000000E+00
  0.00000000E+00  0.00000000E+00  0.00000000E+00
  0.00000000E+00  0.00000000E+00  0.00000000E+00
  0.00000000E+00  0.00000000E+00  0.00000000E+00
  0.00000000E+00  0.00000000E+00  0.00000000E+00
  0.00000000E+00  0.00000000E+00  0.00000000E+00
  0.00000000E+00  0.00000000E+00  0.00000000E+00
  0.00000000E+00  0.00000000E+00  0.00000000E+00
  0.00000000E+00  0.00000000E+00  0.00000000E+00
  0.00000000E+00  0.00000000E+00  0.00000000E+00
  0.00000000E+00  0.00000000E+00  0.00000000E+00
  0.00000000E+00  0.00000000E+00  0.00000000E+00
  0.00000000E+00  0.00000000E+00  0.00000000E+00
  0.00000000E+00  0.00000000E+00  0.00000000E+00
  0.00000000E+00  0.00000000E+00  0.00000000E+00
  0.00000000E+00  0.00000000E+00  0.00000000E+00
  0.00000000E+00  0.00000000E+00  0.00000000E+00
  0.00000000E+00  0.00000000E+00  0.00000000E+00
  0.00000000E+00  0.00000000E+00  0.00000000E+00
  0.00000000E+00  0.00000000E+00  0.00000000E+00
  0.00000000E+00  0.00000000E+00  0.00000000E+00
  0.00000000E+00  0.00000000E+00  0.00000000E+00
  0.00000000E+00  0.00000000E+00  0.00000000E+00
  0.00000000E+00  0.00000000E+00  0.00000000E+00
  0.00000000E+00  0.00000000E+00  0.00000000E+00
  0.00000000E+00  0.00000000E+00  0.00000000E+00
  0.00000000E+00  0.00000000E+00  0.00000000E+00
  0.00000000E+00  0.00000000E+00  0.00000000E+00
  0.00000000E+00  0.00000000E+00  0.00000000E+00
  0.00000000E+00  0.00000000E+00  0.00000000E+00
  0.00000000E+00  0.00000000E+00  0.00000000E+00
  0.00000000E+00  0.00000000E+00  0.00000000E+00
  0.00000000E+00  0.00000000E+00  0.00000000E+00
  0.00000000E+00  0.00000000E+00  0.00000000E+00
  0.00000000E+00  0.00000000E+00  0.00000000E+00