Li 
 1.0000000000000000
    20.6400000000000006    0.0000000000000000    0.0000000000000000
     0.0000000000000000   20.6400000000000006    0.0000000000000000
     0.0000000000000000    0.0000000000000000   20.6400000000000006
 Li 
 432
Cartesian
 -0.0481168500000000  0.1686058600000000  0.1642242900000000
 18.6357439700000000  1.4724695000000001  1.9376390900000000
 17.1362127000000015  3.4857710499999999  3.7998841300000001
 15.5730170300000008  5.2285564600000001  5.2545808100000002
 13.5472428199999992  6.8298620200000002  6.7333324799999996
 11.8647723000000003  8.5749278100000002  8.6881013800000009
 10.3017299300000005 10.3335876300000002 10.4499310300000001
  8.6219229700000000 11.7222985499999997 11.8687828000000000
  6.5221152199999999 13.8093647500000003 13.6069454899999993
  4.8834738900000003 15.6285319699999992 15.5620892400000006
  3.3224791100000002 17.2436764899999986 17.3768016199999984
  1.6926289800000001 19.0760071300000007 19.1434590699999987
  2.1058159000000001 18.8669941500000000  1.8885753400000000
  0.0820790000000000  0.0317600100000000  3.4878839300000002
 18.5975724699999994  1.5398247800000000  5.2977871800000003
 16.9392349300000014  3.4965657000000001  7.1445403399999998
 15.5936950700000008  5.3850164300000003  8.5251639200000007
 13.9089585699999994  6.8084608900000001 10.5875357900000004
 11.8425237299999999  8.4128521500000009 12.0783957700000002
 10.3874942699999995 10.3319630700000005 13.3256211499999999
  8.5829610800000005 11.6643418299999997 15.3985913900000000
  6.6776264300000001 13.7390443100000006 17.0546597099999993
  5.2361991000000003 15.6283562899999993 18.9491850600000014
  3.4995166800000002 17.2959818299999988 -0.1697205100000000
  3.4914463400000000 17.2251412799999990  3.2851842000000002
  1.7105967500000001 19.1872466400000015  5.3340338599999999
 -0.1796005800000000 -0.1324932900000000  7.0140726000000004
 18.9503701599999985  1.9139845300000000  8.5768368099999996
 17.3093858800000007  3.5611052700000001 10.1329076800000006
 15.7099656099999994  5.1853497099999997 12.0962220699999996
 13.9964365399999995  6.8622686399999999 13.9076484600000008
 12.0485044000000006  8.6321239700000003 15.3547948299999995
 10.4809339099999992  9.9897002500000003 16.9418344900000015
  8.3157578000000001 11.9831245400000004 18.7867450200000015
  6.7850370900000003 13.7216903000000006 20.6460358200000016
  5.6326519800000003 15.6830623700000000  1.7377368900000001
  5.3244068699999998 15.5216836899999997  5.1064455899999999
  3.5075428600000000 17.2049197900000017  7.1917984300000004
  1.7014960600000000 18.7099039699999992  8.7922751500000000
 -0.0105827500000000  0.3581298700000000  9.9637957499999992
 19.2732509900000011  2.2471691699999998 11.9252210499999993
 17.4390907900000016  3.2336316699999998 13.5451532500000003
 15.8298000499999993  4.8941259800000001 15.4912316200000006
 13.9475631300000007  6.9877066299999999 17.2916818399999990
 12.2576173399999995  8.4092733800000001 19.0644841900000017
 10.4329489300000002 10.1042586599999993  0.1313748000000000
  8.6756513799999997 11.7352073200000007  1.9097337200000000
  7.1021656499999999 13.8638650600000002  3.4699880500000000
  6.9604705700000000 13.8738216399999992  7.0843848400000002
  5.0282432500000001 15.3856054499999999  8.8262510699999996
  3.7133457700000001 17.1772711899999990 10.3082943199999999
  1.5618854000000000 18.8269778800000012 11.8565404399999998
  0.1324304800000000 -0.2156685500000000 13.5959521100000007
 19.0610601600000003  1.4515931600000000 15.5593702300000007
 17.2910641799999993  3.4356120699999999 17.2677327699999985
 15.8739779799999994  5.2150150300000000 19.2772728499999992
 13.5169877399999994  6.8197708900000000  0.2359191600000000
 11.9248089499999992  8.6059909799999996  1.9252064600000001
 10.4179011999999993 10.6693013800000003  3.4802748299999999
  8.2199980000000004 12.0268291900000008  5.2405228299999997
  8.6454234700000008 12.1268795600000008  8.7696146400000003
  6.6549476600000004 13.6987206500000003 10.5374901500000000
  5.1915582699999998 15.4451776200000008 11.8855968399999998
  3.1970181200000001 17.0438321200000011 13.7247932000000006
  1.7017155300000000 18.7034859100000013 15.5076764399999991
 -0.1630691900000000 -0.0509667000000000 17.2444156000000000
 18.9875085199999987  1.7319063400000001 18.8944037800000011
 17.1365164700000001  3.1944430200000000 20.8298928500000002
 15.2854073400000008  5.3308999000000004  1.9918472100000000
 13.5187326599999995  6.8439550799999997  3.6667462600000000
 11.7487778100000000  8.5616148200000008  5.2181519600000001
 10.0174981899999995 10.4428379299999996  6.7872526600000000
  1.5172966200000000  1.7529006800000000 18.7209571200000013
 -0.3684975900000000  2.9812361400000000  0.2517094000000000
 19.0880888400000011  4.7534071700000000  1.7483409599999999
 17.2713498799999989  7.1229769599999999  3.1729898099999998
 15.4353110499999993  8.6468550700000009  5.2006052199999999
 13.6746937099999997 10.0279676299999991  6.9574539700000004
 11.8693626000000005 11.8964569499999993  8.5900304399999996
 10.3430049600000000 13.5963059699999995 10.3884948200000000
  8.6440281799999994 15.2920920700000007 12.3022344599999993
  6.7601190799999999 17.0207224799999999 13.5387639800000006
  4.9798117000000000 18.7316049400000004 15.3042778800000008
  3.6718441799999999 -0.0984757400000000 17.5972123700000012
  3.6234322400000001  0.1164718100000000  0.2367347600000000
  2.0661446099999998  1.7738493700000000  1.8460386200000001
  0.0291586100000000  3.1112449899999999  3.5851319400000001
 18.7779576299999995  5.1225387900000001  5.1557295500000002
 17.0846663800000016  7.1937639500000001  6.7976838900000001
 15.4376731800000009  8.5276000300000003  8.9406207099999992
 13.6539299799999991 10.3176272099999995 10.5277825099999998
 12.0180733499999999 12.1925725299999996 12.0131354500000000
 10.3027078200000002 13.7219562300000000 13.8699716700000000
  8.2805568500000000 15.2725948200000001 15.3998765199999994
  6.7508585099999996 17.3369464399999984 17.2918598299999999
  5.2532771800000004 19.0185730000000000 18.7868770900000008
  5.2715765499999998 19.1093114700000015  1.4794896900000001
  3.7115917199999999  0.1672926200000000  3.6195433700000001
  1.7418735999999999  1.4717088800000000  5.3048502500000003
 -0.0702975100000000  3.4088540200000002  6.9348356600000001
 18.9971911499999990  5.3922617600000002  8.5602165100000001
 17.3566379099999999  7.1089403999999998 10.3994525000000007
 15.7444047600000001  8.6359000500000000 11.9547478399999996
 13.7536703199999994 10.1157488900000008 13.6924466200000001
 11.9623830499999997 11.8014978900000003 15.5795456199999993
 10.3131107899999996 13.5160821500000008 17.1406196800000004
  8.6291486600000002 15.3286291299999995 18.6888681400000003
  6.9567398599999999 17.3026960800000005 20.5579259100000016
  7.0467567799999999 17.2262872499999986  3.0454907900000001
  5.3951461500000004 18.5837616700000012  5.1848054899999996
  3.6082952900000000 -0.0996337000000000  7.2138187699999996
  1.6989289700000001  1.9318972700000001  8.5885908200000003
  0.0188920300000000  3.8441676800000000 10.2769985800000008
 18.9136918799999982  5.0297966399999998 11.7132797899999996
 17.2339256200000008  7.0115382899999998 13.6370842999999997
 15.5473081400000002  8.6469077700000003 15.6884545099999997
 13.4094531200000002 10.1994730899999997 17.1357499400000002
 12.0372517099999996 11.8782909799999992 18.7090560199999985
 10.2293183899999995 13.5812359800000007 20.6166751599999998
  8.9199644399999993 15.6184592500000008  1.6478759599999999
  8.5281457399999994 15.7951736399999998  5.1340707200000004
  7.0489396800000002 17.2746839500000000  6.8725078200000000
  5.5226363799999998 19.1283926499999986  8.7643723300000005
  3.4430182899999999  0.0706993700000000 10.1629357999999996
  1.8412641400000000  1.6909765100000000 11.9510348200000003
  0.3238287700000000  3.5765608499999999 13.7313078999999991
 19.0075727999999984  5.0163001899999999 15.4161674600000005
 17.1748554400000017  6.6301585500000000 17.4551133299999996
 15.5400287400000003  8.7810100299999991 19.0940579899999996
 13.4809962700000003 10.1789976899999992 20.9284673400000010
 11.8199962900000006 12.2106571099999996  1.9404326300000001
 10.2070935200000008 13.7938869700000009  3.6330786800000001
 10.0090605299999993 13.8231392599999996  7.1005407500000004
  8.3839659199999996 15.4502997200000003  8.8650025400000008
  7.0109345300000001 17.2687513499999987 10.2985885899999996
  5.0270396399999999 18.7793291199999999 11.9429488199999998
  3.4092595700000001  0.0797142900000000 13.5964908900000001
  1.7882682299999999  1.9632652200000000 15.2332026099999993
  0.1682371100000000  3.5859747400000002 17.2398548900000002
 18.9857956899999998  5.1139453000000001 19.1042651799999987
 17.3089507900000008  6.9746279199999996 20.7980677900000011
 15.4219052600000008  8.6492921599999999  1.7710128400000000
 13.7230648899999998 10.3610868800000002  3.5332192500000001
 11.9460224999999998 12.3643796199999993  5.3184924899999997
  3.2599604100000001  3.2615313900000000 17.0715616600000004
  1.5670838100000000  4.9503968100000000 18.9550794700000012
 -0.3244544700000000  6.4563640700000002 -0.0205171700000000
 19.2191271899999983  8.4063375499999999  1.7054594599999999
 17.3579164400000003 10.7455790300000000  3.0233538200000001
 15.5372647799999992 11.9470887799999996  5.0679421099999997
 13.5802935999999992 13.6464100699999999  6.8729669199999996
 11.7528242499999998 15.4154648800000000  8.6487937200000005
 10.3179925499999996 17.2942812000000004 10.2682384300000002
  8.6491278200000004 18.6730451100000003 12.3826627299999998
  6.9297139699999999 20.4710276799999988 13.6436007600000000
  4.9209108800000001  1.6328662000000000 15.3386430199999992
  5.3174916300000001  1.7059577900000000 18.8606398300000002
  3.4267872700000002  3.4116315400000001 -0.1798124900000000
  1.7735652900000001  5.0974418600000000  1.5826147500000001
  0.2225254500000000  6.7055574299999998  3.7511560500000001
 19.1131322700000013  8.7882712699999992  5.1444641899999999
 17.4257234099999998 10.5348337599999997  6.6079573700000003
 15.2984280300000002 12.1252460400000004  8.7267637699999998
 13.7635140400000004 13.9022547299999992 10.5252609100000001
 12.1941469599999994 15.6659821099999998 12.1192879700000002
 10.3951780100000004 17.0562207000000008 13.8754373300000005
  8.7843989300000000 18.4518416599999995 15.2126236400000003
  6.8942550999999996 20.1317290900000003 16.5689052600000011
  6.9124138700000000 -0.0301159200000000 -0.0497367900000000
  5.3565243699999998  1.8359766200000001  1.6287260800000001
  3.6202367099999999  3.6702178900000000  3.4918025899999998
  1.7022723200000001  5.2483878900000001  5.1459639099999999
 -0.1739322000000000  6.7445997200000001  6.5410341200000000
 18.8715210900000017  8.4988870700000003  8.5088016599999996
 17.2168497400000007 10.6163441899999995 10.1510407399999991
 15.4418617099999995 12.1998870900000007 12.2772560700000000
 13.5787895299999999 13.7470580000000009 13.8084906099999998
 12.0829780400000004 15.3944098999999994 15.5441247100000002
 10.5049323799999996 16.9789965599999988 16.8891930200000004
  8.7279361899999994 19.0940552500000003 18.9111893799999997
  8.6989055700000009 19.1197375200000010  1.5468730700000000
  6.9301654299999997 -0.0402341600000000  3.4061743600000001
  5.1507268499999999  1.7674681699999999  5.2641137699999998
  3.7108816400000002  3.5179776399999998  6.5244558499999998
  1.9740327700000000  5.3135380600000000  8.5626177999999999
 -0.0700434400000000  6.8421373200000000 10.3168779500000003
 19.0865744500000005  8.9980881900000007 11.9692593400000007
 17.4029679000000002 10.1826790700000007 13.8815797900000000
 15.3455063599999999 12.1759632599999996 15.3163445500000002
 13.6801875099999997 13.4348889800000002 17.0283324600000014
 12.2562565499999998 15.1857551700000002 18.5305244699999996
 10.2504375999999997 17.0059067400000004 20.1895973200000007
 10.3289988800000003 17.0125494699999997  3.3164002600000000
  8.5715668300000001 18.7671396199999982  5.2511977500000002
  7.0750757799999997  0.1083337800000000  6.7403484499999999
  5.4231091899999999  1.8847919500000001  8.6551682999999997
  3.5593478699999999  3.5025270900000001 10.2367975199999997
  1.9728012800000001  5.2716314400000002 11.8126557299999995
 -0.3094379700000000  6.8038167200000004 13.6054269399999992
 19.0197132599999996  8.6825828299999994 15.8883399500000007
 17.2070628100000000 10.5673096399999995 17.0179904600000000
 15.3992657200000007 11.8518353899999997 18.9799974700000007
 13.8044606999999999 13.5354688700000008 20.7869461300000005
 12.1648764800000002 15.2560341299999997  1.8150075800000001
 11.9423260599999992 15.1266693399999994  5.3217219000000000
 10.3063434399999991 17.0570200900000017  6.8675142300000003
  8.6802364799999996 19.2564837299999994  8.6859848599999996
  6.9183905200000000  0.0734621900000000 10.4481213600000000
  5.2169267000000001  1.5102620600000001 12.1343788600000000
  3.6373494000000002  3.3936246099999998 13.6492962200000001
  1.6114648100000000  5.4615457699999999 15.4996846599999998
 -0.0786568600000000  6.7275890599999997 17.3919071800000005
 18.8709389399999985  8.5919754200000007 18.8034123199999996
 17.5036395700000007  9.9958666300000001 20.7358659900000006
 15.2160865800000007 12.0980190000000007  1.5891023700000000
 13.8899198300000002 13.6258758400000008  3.3566701700000001
  4.9766952800000004  5.2518298400000001 15.4462655099999999
  3.5911063400000001  7.0973227999999997 17.4590163599999997
  1.5291722599999999  8.4033232099999999 19.1145834800000003
  0.0307380100000000  9.9222115100000003  0.0651375900000000
 19.0007182300000004 12.3451847499999996  1.7933113300000001
 17.4779466499999998 13.5114538000000000  3.2771908299999999
 15.5547386200000002 15.4815577199999996  5.2975851100000000
 13.6878282500000008 17.0473050400000012  7.1948206600000004
 11.8531954400000004 19.2455781200000011  8.6507103099999991
 10.2686971499999995  0.0003023900000000 10.4093758300000001
  8.6883163700000008  1.7840759399999999 11.9519065300000005
  6.6380088600000002  3.4860983600000002 13.3905058900000000
  6.8602423300000002  3.0697112199999999 16.9428171899999995
  5.3159789899999996  4.7070163799999998 18.4864735399999986
  3.4681301000000002  6.8563457999999997 -0.3287266400000000
  1.4937484000000001  8.4084778000000000  1.7459977200000001
  0.1802529300000000 10.3002004700000001  3.3700924600000000
 19.5366804300000005 12.2250910499999996  5.0027833399999997
 17.2118471299999989 13.6910285999999992  6.7421021999999997
 15.6492558299999995 15.3776327399999992  8.8004403300000007
 13.7112979999999993 17.2550387799999996 10.4555787400000000
 11.9934473799999992 18.9557725099999992 12.3040197199999994
 10.1706947900000007 20.6556210600000014 14.1087114099999997
  8.2695957999999994  1.6551348500000000 15.2846084300000005
  8.5233073400000006  1.5561932400000000 18.5929513700000015
  6.9770169500000003  3.2881570000000000 -0.3072673300000000
  5.3390610499999998  5.2787449799999999  1.5745330799999999
  3.9038208700000001  6.5641340499999998  3.6806895499999999
  1.9976229100000000  8.5002571800000002  5.2520771399999999
  0.1089795800000000 10.3570945900000009  6.8695866800000003
 19.0157673900000006 12.2485779699999995  8.3526369500000008
 17.2532274799999996 13.2420750599999995 10.4906755300000007
 15.6671695599999996 15.3492569099999994 12.0253310100000004
 14.1518051499999995 17.1795641000000003 13.6944587599999998
 12.2321406699999997 18.7762460500000010 15.1787935399999991
 10.2868331000000008 -0.4907179700000000 16.7416237499999987
 10.2553046400000003 -0.1110273100000000  0.0344541500000000
  8.8225817800000002  1.8166897600000000  1.6473614200000000
  6.9777125800000004  3.3512998399999998  3.3128079800000001
  5.3203110599999999  5.3236619500000000  4.9827678500000001
  3.7335601800000000  7.0700282699999999  6.6120777799999999
  1.3912052800000001  8.4582440200000004  8.5008042199999991
 -0.0587793600000000 10.4587354399999999 10.3560388499999991
 19.0096956800000001 12.1868308699999996 12.0904846900000003
 17.4220914100000002 13.8913346700000009 13.8012973999999993
 15.4989523899999995 15.4322182100000003 15.2598717300000004
 13.9425128699999998 17.1015711900000014 17.2703487100000004
 11.9796637100000005 18.7960623499999997 18.5543005799999996
 11.9533586900000000 18.8397955599999989  1.6097534000000000
 10.2288270499999996 -0.1211199000000000  3.6547069699999999
  8.8521403299999992  1.9381975100000000  5.3423462300000004
  6.9909015400000003  3.3666321400000001  7.2188413100000002
  5.3478371800000000  5.2510335299999999  8.4525684699999992
  3.7328947100000001  6.8260321800000003  9.9286523199999994
  1.6685531899999999  8.3152428000000000 11.9512651299999995
  0.0883902700000000 10.0291343099999999 13.6996085300000008
 19.0515189800000009 12.0295181699999993 15.4952763299999994
 17.2946006499999996 13.7960692999999992 17.0115133999999983
 15.4593546899999996 15.4495792099999996 18.7171566700000014
 13.5528071200000007 16.9110180999999997 -0.4139980800000000
 13.3224487899999993 17.3425642199999999  3.6256576900000002
 11.8932024900000002 18.7452129899999989  5.3343672800000004
 10.3466535999999998 -0.1202044300000000  7.0272551099999996
  8.9931029400000000  1.6321180099999999  8.5745538900000007
  6.9234393599999997  3.4741184600000001 10.2693782599999999
  4.8897202599999998  5.0834139800000004 12.0250940499999999
  3.6169894399999998  7.1494795299999998 13.8534361300000004
  1.4144356499999999  8.3841587700000009 15.6738249300000003
  0.0492616000000000 10.6999085199999993 17.4115476200000003
 19.1153429899999985 12.1145541800000007 19.1072989299999989
 17.0732608100000007 13.8249679200000006  0.0713538700000000
 15.2728779600000006 15.8728668800000001  1.6904586100000001
  6.4181594000000004  6.8026924900000001 13.7157741200000007
  4.6824857099999999  8.7205020500000003 15.2366420999999992
  3.1918903599999999 10.2418850900000002 17.5425208400000017
  1.7098112800000000 12.1793971100000000 19.5284825300000016
  0.0717867700000000 13.9812594200000007 -0.0664295500000000
 18.8555121499999991 15.6303676500000002  1.7234285400000000
 17.3513304499999990 17.4711426900000006  3.6325181700000000
 15.3741920099999998 18.7435726600000017  5.4125875900000002
 13.4480923899999993  0.0092902800000000  6.9865396300000002
 11.9936886400000002  1.7567888800000000  8.4521607000000003
 10.3866823099999994  3.7775007700000001 10.3888086699999995
  8.1934850000000008  5.1265746099999996 12.1525321200000000
  8.4276403900000005  5.1186319400000002 15.8386722399999993
  6.5464616199999996  7.0682344600000002 17.1442114100000005
  5.5416216000000000  8.7375965299999994 19.0568442199999986
  3.5655985800000001 10.3229318299999999  0.1780307300000000
  1.7482048900000000 12.1082940699999995  1.5784240800000000
  0.4179362600000000 13.8224928200000008  3.0953567799999999
 18.9330223999999987 15.5824352699999995  5.1529708400000001
 17.2470543899999988 17.1583978100000003  7.0749690100000002
 15.5633147500000000 19.0286888999999988  9.0641459799999993
 13.5427955699999991 -0.0074162500000000 10.5631606199999997
 11.8371764299999995  1.8402179200000000 12.1979157600000008
 10.1593000100000008  3.3085624100000000 13.9334956699999992
 10.4563654600000007  3.1868366799999999 17.1832447100000003
  8.4535485700000006  5.1940767200000000 18.8558660300000014
  6.4987900300000003  6.7883680100000001 -0.1182837000000000
  5.1635046600000001  8.4327367500000001  1.6772690100000001
  3.1325969800000002 10.6013406900000007  3.3372123000000000
  1.8199892099999999 12.3065601900000008  5.0160448500000001
  0.2980056000000000 14.2151238099999997  7.0043659099999998
 18.8975852499999988 15.4445697400000004  8.5539494400000002
 17.4831971000000017 17.2529872200000014 10.2808823799999995
 15.4849908700000007 18.9077836700000006 12.0057921299999997
 14.1258367699999994  0.0810880100000000 13.6955027200000004
 12.3957076599999994  1.7595900099999999 15.2021664899999998
 12.1305948400000005  1.3565773699999999 19.0023535400000014
 10.2580693499999995  3.2739306699999999 -0.0438982800000000
  8.6020516400000009  5.1478079699999997  1.6987078600000001
  6.9057571800000002  7.2062892800000000  3.3758696200000000
  5.0884385200000004  9.0242091400000000  5.0490884300000003
  3.2473136299999998 10.5027876800000008  6.7190935300000003
  1.3971467399999999 12.0075542800000008  8.8788689299999994
 -0.0720590500000000 13.7753429799999996 10.3066850999999993
 19.2127672899999986 15.2890336799999993 11.9173399999999994
 17.5120834499999987 17.3417015600000006 13.7015387700000009
 15.6277560900000001 19.1424104100000001 15.2272968800000008
 13.8563672400000009  0.0073696400000000 16.9846805200000013
 13.7429778700000007  0.2153371200000000 -0.0562284300000000
 11.9010270400000007  1.4510388400000001  1.9522997700000000
 10.2568833700000006  3.5154133200000000  3.6275399400000001
  8.3337258300000006  4.7834746800000003  5.4196383099999998
  6.8952226300000001  7.1033277000000004  6.7823396200000001
  4.9349308000000001  8.5875480300000007  8.1031239500000005
  3.3567199500000000  9.9571005299999999 10.0322378099999998
  1.3489603999999999 11.9777713899999991 11.9534418799999997
 -0.0407455800000000 13.8401681599999993 13.6871352999999996
 19.2580181800000005 15.6969526500000001 15.5188162900000002
 17.3344730100000000 17.3139033699999985 17.0312006700000005
 15.5794979999999992 19.1661146299999992 18.7114756399999997
 15.1384633100000006 18.6832133999999996  1.5896846800000000
 13.6637302799999993  0.0500034000000000  3.6735903400000001
 11.7104722999999993  1.8688625600000000  5.3921868599999998
 10.3896951800000004  3.5984626199999998  7.2689971399999997
  8.2621676700000002  5.5408901799999999  8.7758700800000007
  6.5817320800000001  7.1679306800000004 10.0770499600000001
  4.6734334400000002  8.6234301999999996 11.8667490499999992
  3.0914781400000000 10.3260247100000004 13.8468783400000000
  1.5690336600000001 12.1494355600000006 15.4494296799999997
  0.0014583300000000 13.8264096500000004 17.1929891200000000
 19.2814712399999983 15.3466343799999994 19.1142910099999987
 17.1775453800000015 17.1560874599999984  0.0087436600000000
  8.4717952299999997  8.4877643900000006 12.0806515599999997
  6.5699851499999999 10.3333600200000006 13.5964870999999992
  5.0329967399999997 12.0282180299999997 15.1809233900000002
  3.5232441500000000 13.7056359699999994 17.5166514400000004
  1.6873510700000001 15.5611114700000002 19.0712392299999998
 -0.0779224600000000 17.3148869999999988  0.0703447000000000
 18.9163803600000016 19.1258932600000016  1.5421302600000000
 16.9637597800000002 20.1690131900000011  3.7889653900000000
 15.0741771399999998  1.5278599200000000  5.1007143399999997
 13.8740572899999997  3.4197917100000002  6.6166524500000001
 11.8985464899999993  5.2749750000000004  8.2535118700000005
 10.1093431999999996  6.9602942600000004 10.4643964799999996
 10.0613216500000000  6.6732213399999996 14.0139795800000009
  8.4433822500000009  8.8292465500000006 15.5277444500000001
  6.4578790599999998 10.3042441599999997 17.1378573400000001
  4.9136069600000001 12.1008573599999991 18.8088004700000013
  4.0024673899999996 13.9670951700000003  0.1027841500000000
  1.8943825299999999 15.6079987700000000  1.4897785500000000
  0.1125987200000000 17.3141298200000016  3.3240992899999999
 18.7619810700000009 18.9330466800000004  5.3087333599999997
 17.0676987900000015 20.5703625300000006  7.0598411499999996
 15.5180045999999994  1.7004129800000001  8.7402707500000005
 13.4919521000000007  3.7745480699999998 10.0697382300000005
 11.9337277400000001  5.2735117200000001 12.4010825899999997
 12.3762363400000002  5.2300369099999999 15.5149788900000001
 10.4330026599999997  7.1526510400000003 17.1432752899999983
  8.4497799600000008  8.5562745299999996 19.0215191600000004
  6.8242489300000004 10.3155309499999994  0.2266520400000000
  5.2317499300000003 12.2303489499999998  1.9501653600000000
  3.4714790600000001 14.0269104400000000  3.1930214100000001
  1.8714866900000000 15.5432856299999997  5.2414695399999998
  0.1432204100000000 17.1856795600000005  6.9364423700000000
 18.8846733600000007 18.8787103700000003  8.6628803899999998
 17.4079550099999985  0.2570040500000000 10.2453535599999999
 15.2204766100000004  1.9774155000000000 11.6661260400000000
 14.1440189000000007  3.6075956900000001 13.6947547800000002
 13.8591783900000003  3.3050997400000002 17.2307235900000002
 11.9373374600000002  5.0414855699999999 18.7445252999999994
 10.2758486399999995  6.9073890400000000  0.1439487100000000
  8.8400224200000004  8.5812323100000008  1.6386502300000001
  6.8001098200000003 10.5539815400000005  3.5501965000000002
  5.0847665700000002 12.1526333900000001  5.1905088399999997
  3.2356664099999999 13.8799657199999995  7.1868545299999997
  1.8503907700000000 15.6099706600000001  8.8023860999999997
  0.0268013900000000 17.1809909500000018 10.0842533299999992
 19.2667393099999984 19.0497952300000009 11.9119588200000006
 17.4238365699999989 20.9179625599999994 13.5059899399999992
 15.7185254299999997  1.7337897700000000 15.3712938900000005
 15.7703293099999993  1.6507699899999999 18.9541765200000007
 13.6059327600000000  3.2579460299999998  0.1448385400000000
 11.9218593599999991  4.6940916300000000  1.8866907300000000
 10.0059764100000006  6.7421268400000001  3.5041985200000001
  8.7425544599999991  8.7042713599999999  4.8980831499999997
  6.9285785200000003 10.1999788500000008  6.5993070500000002
  4.9833821800000004 12.0744050499999993  8.6711361999999994
  3.2560697900000002 13.6109459099999999 10.3404216499999997
  1.6742349700000001 15.5510941799999998 11.4624370599999992
  0.1042850700000000 17.0858161700000011 13.9084576299999991
 18.8394922399999984 18.9562110299999986 15.4325227199999997
 17.3986509200000015 20.8244557999999991 17.1045608800000011
 17.3451291099999985  0.1961911300000000  0.0373935900000000
 15.4740374299999992  1.6225455600000001  1.9277157800000000
 13.7106622599999994  3.3281975400000001  3.5342017100000001
 11.7256650600000008  4.8675384599999996  5.4212851000000004
 10.2534475700000005  7.1459680199999998  6.7111131400000001
  8.6866744899999997  8.7110814199999993  8.4301462699999998
  6.5338929900000000 10.4076839999999997 10.2376655999999997
  4.7286868599999998 11.6828582599999997 11.9580699999999993
  3.3391416700000001 14.0676309400000008 13.5446477800000000
  1.6141969400000000 15.4187593399999994 15.7578083499999995
  0.0262757200000000 17.5941207599999991 17.2092939800000018
 18.7588013800000013 18.9111099799999991 18.9230549100000012
