Li                                      
   1.00000000000000     
   -11.0705700000000018   19.1747897087477881    0.0000000000000013
   -18.9781199999999970  -10.9570226907130195    0.0000000000000076
     0.0000000000000001    0.0000000000000001   23.2203000000000017
   Li
   504
Direct
  0.0083938328562780  0.0089078231034634  0.0022738612334905
  0.9143078655969390  0.0424728646651218  0.6850866091308063
  0.8642058455212904  0.0840093398475403  0.3267399973299234
  0.7835366040168807  0.1115654868695515  0.0150302399193833
  0.6785636628779130  0.1717617014042290  0.6940970052066504
  0.6316060602397258  0.1820388193188691  0.3416374034788490
  0.5554909841548223  0.2673835145707315  0.9960916000223961
  0.5078407729597672  0.2911740759408659  0.6582971882361548
  0.4298904347530481  0.3167424739508391  0.3272644470571038
  0.3429865049251504  0.3722983998505001  0.9969392337738938
  0.3002249729888433  0.4039111761744039  0.6814563020288276
  0.1972672475356134  0.4456767997804647  0.3350697432849685
  0.0786595038417417  0.0627739363306148  0.6746381877064493
  0.0209538250605092  0.0828086118593347  0.3345683923119012
  0.9387484936759876  0.1325537581364955  0.9985315224178848
  0.8481376065425152  0.1671185906263943  0.6661664280823274
  0.7939644497900105  0.1719141106225592  0.3327166983200058
  0.7044083846950713  0.2361638401826056  0.0097338216991147
  0.6386295057455769  0.3276600939702234  0.6690213735395290
  0.5710725447258795  0.3161016538273529  0.3204933838064079
  0.4916720964192649  0.3729238543935764  0.9971011744034328
  0.4364792930887944  0.3919841966596280  0.6744408668277302
  0.3510726205575025  0.4458560979187993  0.3511628587916604
  0.3007933117630230  0.4999112955653970  0.0068326210255663
  0.1240179205417604  0.1052450432070202  0.3115009603665726
  0.0751656858828156  0.1360627929866780  0.9993485734465111
  0.9976878657445667  0.1671785368689882  0.6782441660960430
  0.9208984109696203  0.2033041480648308  0.3386825122845067
  0.8669459087856524  0.2243377584594697  0.0153019564777352
  0.7727991613338574  0.2985769353609413  0.6707601529695992
  0.7273850254066971  0.3043428505712598  0.3638662532353152
  0.6474841760141885  0.3656138677351919  0.9917123792543592
  0.5818584621537966  0.4196292580421073  0.6636672984414531
  0.4926017280404551  0.4379150952574449  0.3590928958712851
  0.4159279047471500  0.4918050331404444  0.9962086131531436
  0.3533899617611738  0.5362456835042479  0.6827697015111767
  0.2106149825423103  0.1347020190997128  0.0062930233459539
  0.1546174398426743  0.1752196676488964  0.6717076807793205
  0.0753851403188364  0.2181825711472172  0.3343505122672852
  0.0061110360951133  0.2454706381420593  0.9901032372536065
  0.9258371536902672  0.2945265459103013  0.6820526552197848
  0.8584721024395563  0.3228184576183395  0.3277853864937157
  0.7752221716031329  0.3604317020714163  0.0246043991679699
  0.7140958687464618  0.4247534285973273  0.6736111923618537
  0.6314727003267393  0.4427040385424803  0.3292855092311484
  0.5669083624426747  0.4913988029369065  0.0062505066687351
  0.5094225512013537  0.5253696012748819  0.6633845148426190
  0.4319364908814478  0.5535204499783219  0.3422388444593736
  0.3014016373218027  0.1727356132174478  0.6566456622007451
  0.2027784201967009  0.2140301312628949  0.3547898067639110
  0.1341429635937459  0.2437862823887684  0.0147648708242372
  0.0686136441788108  0.3078399856868543  0.6717849920112968
  0.9978764260012554  0.3488465134904430  0.3091107604122243
  0.9030442664650380  0.3610269750112280  0.0111776303493087
  0.8559087802115002  0.4334050156208349  0.6738010129068073
  0.7696117671223703  0.4499336335342008  0.3543583076015366
  0.7117150472725839  0.4923262382741598  0.9886420020413169
  0.6619637403614504  0.5494326210850602  0.6770583282731053
  0.5780529360330959  0.5658578077249032  0.3152285439895266
  0.5094063888821481  0.6003967655085418  0.0018919523003547
  0.3544554791349839  0.2225981575810749  0.3311071536543437
  0.2677624947591184  0.2477194631709878  0.0016701158038472
  0.2247943878390046  0.3036372350802452  0.6664533912137216
  0.1438646343966354  0.3318958492404747  0.3371098017682783
  0.0475965678758570  0.3831667021586185  0.9928026326102568
  0.9951055831237881  0.4180228291652313  0.6713952743935252
  0.9220025676593195  0.4539949296636223  0.3370924342062764
  0.8487148923011532  0.5114527568978176  0.0056935702811742
  0.7984305529780684  0.5694680349327328  0.6880280780179433
  0.7146407873555560  0.6021742010655018  0.3459530608992978
  0.6637226511421090  0.6188666996491605  0.0085833223515621
  0.5988060167796903  0.6554429766920649  0.6642879613958499
  0.4233857427361016  0.2546774458185510  0.0058067703690270
  0.3592270686282149  0.2875450145144285  0.6679028526763204
  0.2713993873957747  0.3233025549357862  0.3585188709878864
  0.2019915792555409  0.3931395413476650  0.0117212710430081
  0.1423969898361008  0.4271169465800710  0.6583665004328125
  0.0597129614068876  0.4778315940060338  0.3341973281998918
  0.9939536227642591  0.5006552483825928  0.0134099378561032
  0.9284624145119125  0.5297226842161820  0.6604586267188637
  0.8724337238144599  0.5855980123506086  0.3365947653561747
  0.8111731695892956  0.6252175502072816  0.9910177017523480
  0.7222789900086752  0.6796629846148932  0.6956675456389476
  0.6482124867319641  0.6982156125453827  0.3305135601176588
  0.1410289803848315  0.5104805565894353  0.0063605224738694
  0.0768876372512608  0.5511104919599674  0.6683820583713356
  0.0067548744040238  0.5790456462531068  0.3369153779236242
  0.9395703674664304  0.6531423348064607  0.0024144877542511
  0.8566821100095439  0.6764228418511209  0.6766740421097026
  0.7834514302765356  0.7130443262832955  0.3137288643988256
  0.7107869372768931  0.7615312631488536  0.9911964845415397
  0.2304462881606355  0.5555677620163380  0.6627504076174731
  0.1381517160521213  0.5751355127286004  0.3421264281684557
  0.0851623631799967  0.6500713182891928  0.9723479442556737
  0.0086819924702084  0.6597428820462241  0.6654281284048835
  0.9260004142024911  0.7134567941683585  0.3119563993574559
  0.8478297898820415  0.7794255027908719  0.9832583756454483
  0.7806200602319677  0.7788868407301521  0.6616109576534299
  0.2899397638533969  0.5739322028987885  0.3304874424533679
  0.2089732153405990  0.6361702951318051  0.9903515587653899
  0.1356514449907849  0.6846997722971651  0.6504349293506095
  0.0664198642982186  0.7278057648964236  0.3420043677299631
  0.0073086760269518  0.7506555080501300  0.9908416127267969
  0.9235529184398246  0.8147934615076551  0.6429763469894851
  0.8602326227966870  0.8427804936972478  0.3353186009655360
  0.3720743527920192  0.6193534961424660  0.0064248997644327
  0.2952647263451667  0.6726381658702181  0.6485719142302173
  0.2174098823150032  0.6849226487734299  0.3217466768301875
  0.1390394368671366  0.7691157681267597  0.9921552783555754
  0.0689233879379074  0.8027030132171262  0.6847219140148937
  0.0103717044524316  0.8459064548985893  0.3304806122229280
  0.9314533512862511  0.8997515988333404  0.9943339306555004
  0.4471025308782188  0.6680601568930697  0.6556008315999335
  0.3665736908157129  0.6981605478132877  0.3469903959035818
  0.2835721403913780  0.7442611391300815  0.9927041872844029
  0.2200562333826923  0.8095509610225164  0.6655048784899407
  0.1497544656135403  0.8202509988140392  0.3122481944677702
  0.0640745747880302  0.9026117784368992  0.9907155247778903
  0.0053773315185737  0.9127857477458434  0.6466590603911229
  0.9298701545311872  0.9759910772695974  0.3495966736002529
  0.8533024802421423  0.0133318585458255  0.0127085709486963
  0.7758055485068951  0.0257169840250739  0.6708777509334496
  0.7104861664009050  0.0606703098529877  0.3363225324392900
  0.6274951640129558  0.1209660151865961  0.9869047807306544
  0.5550255655986547  0.1671594944204458  0.6736629574122617
  0.5094812881020871  0.1979558326312443  0.3408206160127136
  0.0757427511682636  0.9411058256138745  0.3260801402221318
  0.1440724654552596  0.0074536021536886  0.9864467237718699
  0.2331406708909398  0.0512867566995538  0.6509240444783231
  0.2763682913990948  0.1034635577331144  0.3134672420252969
  0.3628456867467236  0.1341141559686818  0.9914798396230893
  0.4282756033178785  0.1648107138208204  0.6847354233149474
  0.8786790755197345  0.9152307171059846  0.6523899170122718
  0.7828050478782060  0.9605343680570542  0.3334206336696752
  0.6967608542361177  0.9875437619700591  0.0137423237425907
  0.6336025616277965  0.0506869104695369  0.6863967347536430
  0.5590866593888535  0.0661059663006398  0.3514997911310331
  0.4920028597092241  0.1282328914238562  0.9875866883718132
  0.1394019725981579  0.9285101461163663  0.6650925371334537
  0.2178322289751407  0.9754726949178689  0.3135827810148868
  0.2755681566376253  0.0299759545293341  0.9805647377510169
  0.3626184171858995  0.0385743076371270  0.6524090399348879
  0.4127547095909492  0.0646567354745216  0.3213148921417925
  0.7609266839229605  0.8834116567269561  0.9859186470459065
  0.7064483799953152  0.9132609166701045  0.6532598700275187
  0.6295205129923360  0.9369013466287726  0.3490777238020186
  0.5353544763714453  0.9982962556099650  0.0121569230371676
  0.5097271897322955  0.0324358579862150  0.6668895518145774
  0.2099620866793686  0.8765812721212640  0.9824445106221731
  0.2979141105796401  0.9183576447424926  0.6652383401592559
  0.3396754607778334  0.9494244379409977  0.3344079253928669
  0.4150615157599375  0.9972564208400740  0.0018462323914861
  0.7248250446878259  0.8289130627812611  0.3153415838727298
  0.6118671001756653  0.8630732410169344  0.9967558954880005
  0.5792174441055167  0.9180056754730614  0.6593597968157141
  0.4795878726757152  0.9526667517326501  0.3252795635715273
  0.2968324395079520  0.8402983836205280  0.3307685236624849
  0.3464274197732848  0.8767213580418129  0.9816556676700969
  0.4290142843363896  0.9101887333547296  0.6814346601895735
  0.6373683328415609  0.7857863784976686  0.6561337687282247
  0.5651488500902886  0.8121573319515321  0.3287709706592921
  0.4761360861202988  0.8621008882375705  0.9844519334375548
  0.3379125696842280  0.7825816004657398  0.6576708617029041
  0.4259320044669508  0.8311405555085685  0.3223099490531993
  0.5648367023418501  0.7347118696770494  0.9887397863076686
  0.5097688890527863  0.7895847660315596  0.6650206806113630
  0.4330752210458613  0.7457571561433056  0.0042568403508980
  0.4979731669978875  0.7152666284451854  0.3253867142112696
  0.0088995547445236  0.9978994988034628  0.7638538972364728
  0.9152450731613087  0.0517776065496776  0.4462907654078521
  0.8502723195908359  0.0992200147805633  0.1092450179368925
  0.7927513566967832  0.1215868601891685  0.7807750119507517
  0.7225305718511663  0.1571295927721863  0.4432245556689622
  0.6349007408504406  0.1864913534830279  0.1012826311460202
  0.5756590185084534  0.2403424632930395  0.7659328626245170
  0.5002651848715800  0.2951908962698226  0.4420458779602328
  0.4104055923993783  0.3351570187642992  0.1131786471320382
  0.3755938564482193  0.3771704631765473  0.7789895027196039
  0.2658361517598138  0.4157609823002701  0.4494424615530406
  0.2026186880364733  0.4675436018311672  0.1198253665973326
  0.0732828989908896  0.0462640565513581  0.4393446854691803
  0.9975534051739672  0.0975854699666385  0.1173602167069348
  0.9134935757625726  0.1184929284339091  0.7786595448809877
  0.8525157860156085  0.1823677669236545  0.4660315013156620
  0.7789666487153966  0.2000716007555425  0.1180127005249716
  0.7167475183883312  0.2401566633236456  0.8074368401786387
  0.6683440859391112  0.2800258973241299  0.4428026924716733
  0.5785048054091106  0.3454044229029023  0.1067245845230218
  0.5223507190833061  0.3835729724460535  0.7808289617274511
  0.4176250005284246  0.4262096286618515  0.4356526681395181
  0.3546080751303506  0.4528868260767780  0.1009234553386449
  0.2932648885085598  0.4869314043342428  0.7798649767660208
  0.1599952130502160  0.0971650971889062  0.1239530441036507
  0.0713076498620211  0.1327434625066672  0.7960024302011632
  0.9838263966323240  0.1729634472874082  0.4515560897146003
  0.9258055798959006  0.2007238752506453  0.1213911146712121
  0.8601049444976852  0.2437596392367780  0.7911931745067875
  0.7943189839097542  0.3069523686381004  0.4716408651051012
  0.7152246250742991  0.3170518788157750  0.1243094529355773
  0.6641241077584894  0.3920389341184531  0.7877471298820424
  0.5786845980319768  0.4018646140695239  0.4546868920728855
  0.5016935950962633  0.4546955450242223  0.0932436484455437
  0.4360637103713429  0.5057555316266473  0.7699978342226430
  0.3453227507896131  0.5467515051433480  0.4594992614221169
  0.2134144313259796  0.1100656971815752  0.7841214067001729
  0.1080597184207832  0.1693488102637346  0.4549100188197386
  0.0584455751591761  0.1928086390543484  0.1090052200014640
  0.0101136896101508  0.2575633108660185  0.7820323591857132
  0.9074348080528836  0.2992819218665517  0.4416742953364050
  0.8729785806839487  0.3296868891142921  0.1315968238997769
  0.7999203736987255  0.3748658011721986  0.7923979535148149
  0.7172410734676546  0.4356493108538260  0.4734026881650948
  0.6528391605739969  0.4509440463082939  0.1204978811643258
  0.6088957571972244  0.4925449057780824  0.7988626908351719
  0.5105070791432453  0.5546777960540439  0.4381016085063507
  0.4130360503558634  0.5825774197871993  0.1284956929927716
  0.2665030370912689  0.1627725882578730  0.4368035051226755
  0.2174851636170132  0.1846643567548512  0.1141059960465611
  0.1489596580806563  0.2720350539485494  0.7747645461083650
  0.0490211421629283  0.3128608499791028  0.4467710766010740
  0.9954873526523258  0.3331610801463896  0.1101809192818379
  0.9378554343609409  0.3788326928076557  0.7862778086415787
  0.8591225859934752  0.4345490882752472  0.4468771109761747
  0.7998952989458701  0.4651077751826236  0.1234584785726298
  0.7343143439212483  0.4994420107795605  0.7874214588097459
  0.6518061480048090  0.5516011291994332  0.4365638691145222
  0.5941541357200464  0.5745193338287322  0.1264994289479446
  0.5105879412264187  0.6059489752144600  0.7651098444033906
  0.3543706615967892  0.2105387722728267  0.0913418487271898
  0.2968386115066721  0.2495267857202208  0.7663573067531431
  0.2061371959847236  0.2774332553618279  0.4560030042678207
  0.1401383484761638  0.3242768964212601  0.0988534200677833
  0.0764090219353832  0.3869904623868337  0.7783543037772986
  0.0025223627588531  0.4242030910602708  0.4479648988169842
  0.9507916623362718  0.4596170788618679  0.1185614130739054
  0.8771097737927249  0.5003682367665192  0.7925170906491275
  0.7894777092938483  0.5527055712485094  0.4485395399714918
  0.7332780071640670  0.5930562743954439  0.1065162258885550
  0.6578360245902317  0.6244569494371461  0.7865547874058478
  0.5952786841460593  0.6741023045303294  0.4276440765192504
  0.4505468609803884  0.2607809497061027  0.7899287541504663
  0.3677078095460047  0.3021630506538173  0.4420772207938768
  0.2622770142507207  0.3183783106201474  0.1028639970198455
  0.2061731603903141  0.3831235594346438  0.7782488848119939
  0.1331227226126757  0.4081654084137867  0.4354566784236198
  0.0719189276239405  0.4627868159445825  0.1070606607149784
  0.9940863033219500  0.5033738675397359  0.7552746756071187
  0.9194245400685048  0.5402673815664514  0.4432332252382594
  0.8859382594290537  0.5811252480916167  0.1126421053991535
  0.7949352886892243  0.6217752691570979  0.7840885238347468
  0.7322632650260275  0.6784762218860863  0.4512394521173277
  0.6404842355084810  0.7104536959881642  0.0980001722630632
  0.1474703291652304  0.5010364845439526  0.8059889824851538
  0.0914699009811599  0.5267686002773218  0.4653340908601535
  0.0331119612164272  0.5851756789142613  0.1129020365800599
  0.9218753707557923  0.6090587480093959  0.7707030908300041
  0.8552107390861892  0.6753706520031812  0.4424353987674579
  0.7964065326258165  0.7235939962498179  0.0932984530776935
  0.7185322476064826  0.7297623371342965  0.7728238605875006
  0.2104445806540056  0.5199325601666160  0.4487775041666140
  0.1438333486279149  0.5862820735499739  0.1180492078052424
  0.0756963849809438  0.6378569353192773  0.7725976412880087
  0.9882122778158760  0.6534912290353247  0.4495149558791240
  0.9319559656166447  0.7222305868928700  0.0861387144007608
  0.8846726723389224  0.7580692025229538  0.7614961662855322
  0.7480268274942858  0.8119605995929291  0.4299044857301553
  0.2897821802437903  0.5989135034902588  0.0961097888485511
  0.2189307376194094  0.6258392045172414  0.7607702919428263
  0.1287777013848270  0.6733696389516055  0.4507157444132943
  0.0707286611351279  0.7168699942827459  0.1236876986946740
  0.9991679638730844  0.7603596201407470  0.7680508356911844
  0.9048625667594052  0.7881762616270933  0.4128431958243439
  0.8570926488523725  0.8627276861140345  0.1034079305607563
  0.3689314212970061  0.6246872917513429  0.7594803719159557
  0.2762002602679274  0.6442964468917722  0.4471249703922879
  0.2275211865779880  0.7301207721052094  0.0943342032618020
  0.1471384931143334  0.7661676516052864  0.7695078353854186
  0.0630507737614465  0.7756844416369901  0.4458878171255307
  0.0021858511168915  0.8659828898858777  0.1011825338173935
  0.9395068118452059  0.8957407421805073  0.7711843279371919
  0.4153512734706197  0.6565720668040029  0.4444129231749798
  0.3606298279074096  0.6941733541606396  0.1279469490058247
  0.2835300175306301  0.7387658911328430  0.7498478391752030
  0.1921832032218092  0.7785343909675362  0.4208893330404848
  0.1423844465257034  0.8350083273699411  0.1060801126600452
  0.0878382269751299  0.8776107928285768  0.7709641580858104
  0.9913646004906695  0.9300263490138150  0.4505530931986215
  0.9467158882524629  0.9857015820844737  0.1175001533141256
  0.8590933893759995  0.9943330428080230  0.7993219842120922
  0.7769606581430253  0.0511342038506228  0.4608469981007985
  0.7074572208220289  0.0670934420735207  0.1143184407608828
  0.6461137510409571  0.1112968603390954  0.8049035029693812
  0.5574249183722841  0.1449292096063957  0.4458529472056796
  0.4880328151201070  0.2160328930323843  0.1030190135355724
  0.0932833030629254  0.9674952073024414  0.1025386446342225
  0.1688525280064681  0.0078121309712174  0.7651257985469613
  0.2156081615380998  0.0431350468392608  0.4144528589208605
  0.2930813226971836  0.0709580122471678  0.1106736273863831
  0.3401852379582451  0.1436924869384626  0.7585691941964541
  0.4120872604511376  0.1620072661078922  0.4351416467487468
  0.8641786217219050  0.9281178554948610  0.4470856388591002
  0.7912626507951330  0.9786980346834682  0.1245355688772349
  0.7022744693152703  0.9965767677848234  0.7930719064783815
  0.6393918791260589  0.0405413821128420  0.4530603898313146
  0.5795879005282174  0.0820393856741006  0.1183996593497909
  0.5024842433905903  0.1168830279104256  0.7812400602059384
  0.1237772914952586  0.8952714046539541  0.4468660753737055
  0.2365223676995853  0.9662592449523970  0.0854288075520131
  0.2991999377194006  0.0075940069660092  0.7844164674875032
  0.3544026463857861  0.0067992253711608  0.4444798908713494
  0.4554538256725849  0.0558474675639005  0.0952450541121337
  0.7781502836927601  0.8873736457488661  0.7803500402664909
  0.7133655554951233  0.9232963988162339  0.4372073272093786
  0.6134440530745522  0.9671251967715691  0.1207045951172034
  0.5646946205862662  0.9825889800557874  0.8015616503662741
  0.4969844419858234  0.0396246211998346  0.4569023565587003
  0.2294227380071732  0.8904316876118372  0.7837246827129718
  0.2571346495335334  0.9125623925295869  0.4390963191690034
  0.3592081538009069  0.9504043292368394  0.1005758065141293
  0.4222888980699366  0.0076509914414018  0.7668495596525489
  0.7068184484244000  0.8445254255651378  0.1068525996649470
  0.6347879255022804  0.8603272081519293  0.7816243567051231
  0.5654643890873601  0.9181731034528795  0.4380514007140306
  0.5017465817361639  0.9442087311403355  0.1011782014013605
  0.2928597802905699  0.8221726088837329  0.0994630293320924
  0.3557317018914148  0.8733656264683773  0.7743090580225029
  0.4209936539394548  0.9164451755235774  0.4287336851806387
  0.6546355607070211  0.7843915035158204  0.4330374939169630
  0.5690508365199136  0.8268334993533486  0.1137658768405245
  0.4954805788667471  0.8737375776955290  0.7726408956817963
  0.3499696021988399  0.7760743841321300  0.4308665831190837
  0.4204434462720386  0.8278852561267485  0.0975349052337791
  0.5757470304480918  0.7299346008525731  0.7914026399314409
  0.4892964801468054  0.7960745266539107  0.4454407591633185
  0.4338832900893621  0.7567916814329010  0.7754335060270563
  0.4921852374788713  0.6831993551270372  0.1072145545061858
  0.0181111843991886  0.0116369780213148  0.2223327037118352
  0.9293854638527463  0.0503313813715849  0.9072964341545955
  0.8400095998250237  0.0719066147998362  0.5529718849454994
  0.7921353170077623  0.0960805397791447  0.2176801161053064
  0.7045330206329368  0.1558397506060416  0.8964051291326953
  0.6254766386498289  0.2152652970084716  0.5520665211043791
  0.5691119214528726  0.2488542345459663  0.2040567636938349
  0.4931422066355040  0.2894841644739969  0.9075342446049390
  0.4471476687344875  0.3259444693646216  0.5662578183744387
  0.3426155056107305  0.3593891134659799  0.2240593713259500
  0.2700812406026287  0.4166019147429623  0.9009805493469045
  0.2056343672570264  0.4533088421232137  0.5829125463495330
  0.0719601440178863  0.0271294052540441  0.8756500807483079
  0.9904297691991886  0.0812756943257043  0.5787972424990215
  0.9331898489403159  0.1206307734389327  0.2243377958079762
  0.8446959005062098  0.1676861198439568  0.8990772272537413
  0.7677428053648541  0.2212689223807232  0.5583021481203971
  0.6955682029191408  0.2185458875699737  0.2364727578885706
  0.6332847494518106  0.2741355440507931  0.9010714426600828
  0.5734946882842848  0.3357621966096005  0.5451523050951081
  0.4953820955917507  0.3678438013883820  0.2133717970913409
  0.4215224946656093  0.4136650430195274  0.8821149283170300
  0.3603939655422437  0.4349711829668621  0.5674660887240890
  0.2860162339108427  0.4958791783039445  0.2143907580866724
  0.1248724739544755  0.0768298480573293  0.5599330090481160
  0.0686792253207784  0.1400161427233328  0.2063773435313081
  0.9824550903593376  0.1706470725404117  0.9057011395201613
  0.9302234044965019  0.2096645629221001  0.5595543722518670
  0.8520992966549628  0.2473309995632036  0.2293265599496976
  0.7841303710147614  0.2778941738462564  0.9016504696321732
  0.6976191378979522  0.3531867355966298  0.5575148309884028
  0.6623243230922213  0.3881113897743802  0.2150428926413497
  0.5683058918636803  0.4195145484753340  0.8836176784968330
  0.4854555975170243  0.4646238945583647  0.5551290327859704
  0.4308891215197121  0.4707251576013576  0.2171024289091861
  0.3580717589855809  0.5668630653155802  0.8917823266710627
  0.2276285349071685  0.1049588789781453  0.2016180122565174
  0.1352269353830735  0.1768039287324683  0.8865200798439261
  0.0746463344678574  0.1893134261470664  0.5594729689108249
  0.9963671292574219  0.2613727276388076  0.2208730963854890
  0.9180821033118463  0.3062805883585398  0.9118972127836429
  0.8524659838640218  0.3201149667624890  0.5710981572158857
  0.7788823463435222  0.3777141414976697  0.2347131316132831
  0.7349923944167429  0.4075368707828702  0.8884167431084009
  0.6425519098089296  0.4672850611033397  0.5666591353255583
  0.5624207701004877  0.4730512814308625  0.2410882740533040
  0.4968482346210337  0.5362505337331314  0.8764959793801097
  0.4285512999294383  0.5845369117457437  0.5614030697277812
  0.2683695240825870  0.1682907720984517  0.8882027239096857
  0.2102446466188113  0.2028859772454368  0.5584800200686502
  0.1552930532916292  0.2463343488723453  0.2163788783951972
  0.0512915095682729  0.2899433248877514  0.8751187284401993
  0.9715506639387428  0.3205426794814059  0.5612764253691793
  0.9211647306377557  0.3732974561201843  0.2169197297192511
  0.8652741878193950  0.4411179750445413  0.9097767272602013
  0.7829987821368647  0.4785923190726535  0.5627557029840276
  0.7108003868425783  0.5069376024301704  0.2476295879036883
  0.6582243283328566  0.5332592668550973  0.8832302704960711
  0.5715195279911427  0.5715386123075987  0.5482246646253515
  0.5180317487234944  0.6036480000934858  0.2172323380834840
  0.3438508850190232  0.2215992610350739  0.5633817306408631
  0.2930889619274524  0.2427272285534485  0.2325058151703487
  0.1888387811720165  0.3032185650802361  0.8969916702195917
  0.1356559487635067  0.3117213376929442  0.5513339508964137
  0.0976519762091428  0.3658420176360124  0.2019340813856871
  0.0165032527094766  0.4503281318514141  0.8834590112961536
  0.9236657729664728  0.4514297877645674  0.5661715180251790
  0.8561284182218216  0.4913358998196884  0.2493466501294108
  0.7832195071814851  0.5511357890234549  0.8883549480411546
  0.7193059407951665  0.6108185215928259  0.5584530897533639
  0.6841710752458141  0.6226282171003206  0.2089261112044198
  0.5842461503985703  0.6595812828026268  0.8912845066601207
  0.4359292065432072  0.2263348268384320  0.2261665516810751
  0.3477488753696676  0.3004828208905224  0.8996708470605483
  0.2845277713049512  0.3406761212820086  0.5513081906779860
  0.2117393081155541  0.3705422458997631  0.2278793163740360
  0.1340809503005147  0.4142110237490115  0.9093176044237126
  0.0863982995810559  0.4304950230374232  0.5581455355873928
  0.0011022280761068  0.5102436809824979  0.2103568885845561
  0.9203732086035288  0.5629285776478383  0.9017125368750598
  0.8605499536008949  0.6061115379270703  0.5413374969315612
  0.8133238284563262  0.6347503206011069  0.2244999319560890
  0.7238567594168472  0.6544799160771788  0.9004412694926387
  0.6523039744699375  0.7298362477080076  0.5597426592249022
  0.1379788161309818  0.5002336499877131  0.2237691657730494
  0.0615775056508525  0.5558392561152985  0.8840462276542524
  0.0097070519193707  0.5755362123452201  0.5526285943764719
  0.9594855846576920  0.6277622004211239  0.2249551526035418
  0.8641057136404555  0.6824754822787185  0.8964441109718635
  0.7792499158327857  0.7204785031014111  0.5752552675891351
  0.7144352190480561  0.7427919961019924  0.2184206806113593
  0.2201236208402477  0.5387065223970851  0.8968727113775472
  0.1521963440705534  0.5832378559742892  0.5578839028780820
  0.0791909733496823  0.6372552542698742  0.2520084072987885
  0.0001338864324651  0.6840163267424444  0.8753182827095287
  0.9364309317832635  0.7028541804735227  0.5518517809847410
  0.8645813267443856  0.7682118951499604  0.2121353871397034
  0.8049748998118105  0.7909420487061070  0.8708316094107289
  0.3196022370353617  0.5739792125217562  0.5695107539523576
  0.2346328183720985  0.6197751052219331  0.2338856354138414
  0.1625045351883259  0.6844131266890585  0.8784820557873942
  0.0513674534223938  0.7236158782411337  0.5481295935022388
  0.0023873211097296  0.7592161733903211  0.2369210216922255
  0.9493548844512745  0.8119699583963182  0.8915236952149641
  0.8557680641547520  0.8254562096777960  0.5329492241702312
  0.3798455395103275  0.6187760355432061  0.2179390292115073
  0.3039145215411665  0.6633454538838421  0.8805871892266666
  0.2088502149029523  0.7121249094431832  0.5465914363724806
  0.1610520358093481  0.7475320039039701  0.2284334935379846
  0.0822514207363554  0.8245547682878325  0.8680701170958187
  0.9894084409312001  0.8166558492664322  0.5318837258777904
  0.9343882411445463  0.8792239910608828  0.2201258093134015
  0.4593016124284617  0.6513093166497939  0.8968143391773609
  0.3712358314678994  0.7137992346568822  0.5221900578373209
  0.2961461866335924  0.7360513133355511  0.2240302058974279
  0.2087183717155128  0.8200516408178160  0.8834884054038952
  0.1347875963811802  0.8325840051138087  0.5371151449378360
  0.0789845964773832  0.8850482938128437  0.2158500394051757
  0.0018297761074209  0.9398598014723518  0.8718634009896533
  0.9128215494336374  0.9744803368029338  0.5615398560742122
  0.8559928276786692  0.9971395745039686  0.2272839877176409
  0.7824283236373120  0.0272252432375026  0.8998829550005780
  0.6859256439228858  0.0986239445296277  0.5768347549342607
  0.6276106011678522  0.1008837443871755  0.2207076665676126
  0.5698993796228820  0.1790598144035513  0.8860088775769484
  0.4809401795206085  0.1960001457891778  0.5547419361506982
  0.0626524542857894  0.9507540177402944  0.5586479800002593
  0.1513116183983954  0.9937878665909636  0.2335198154201308
  0.1935412508560859  0.0516521559833194  0.8860327932886278
  0.2775320731838349  0.0659045172321200  0.5338777896926388
  0.3663732284119163  0.1345364440070895  0.1946259251603095
  0.4247890153347527  0.1729862420780108  0.8718460885518269
  0.8569180864126977  0.8951390712094849  0.8864287877417567
  0.7663788711498611  0.9552384983557118  0.5706605233351851
  0.7036879569269132  0.9949073103491628  0.2433751398560773
  0.6230032562900192  0.0246506651350842  0.9194273454692663
  0.5782427185416097  0.0715800889337217  0.5623862895828253
  0.5267777406390195  0.1357996986958625  0.2242328957851569
  0.1383029995738383  0.9119520069431459  0.8796021580255200
  0.2011004176903484  0.9657371056210877  0.5543779774593744
  0.2861479680301287  0.0027666623229621  0.2071254945026553
  0.3664626863243683  0.0482314996774207  0.8778518283570804
  0.4147630566300791  0.0985920464283438  0.5653773034801475
  0.7729870807678125  0.8834739860041054  0.2254896900556815
  0.7214932611595088  0.9033782660139877  0.9032954488098781
  0.6377663779356055  0.9640297668798254  0.5607693345908515
  0.5731568230880981  0.9752819825686458  0.2187260741678614
  0.4919780594902292  0.0480720426443355  0.9156232929807118
  0.2265821202487075  0.8815436537991275  0.1950680413259107
  0.3026426662828925  0.9385420778205926  0.8996667166229528
  0.3493043317044666  0.9397868258058466  0.5459153378724650