Li 
 1.0000000000000000
   -11.0705700000000018   19.1747897087477881    0.0000000000000013
   -18.9781199999999970  -10.9570226907130195    0.0000000000000076
     0.0000000000000001    0.0000000000000001   23.2203000000000017
 Li 
 504
Cartesian
 -0.2619782500000000  0.0633467600000000  0.0527997400000000
 -10.9279643499999999 17.0662849100000003 15.9079165899999992
 -11.1615906400000000 15.6504731100000001  7.5870007599999996
 -10.7915000200000009 13.8017240399999999  0.3490066800000000
 -10.7718007100000008 11.1293186800000008 16.1171406899999994
 -10.4469936600000004 10.1163099100000000  7.9329229999999997
 -11.2240382499999996  7.7216955699999996 -0.0907542200000000
 -11.1480233799999997  6.5473390699999996 15.2858581999999998
 -10.7703088299999994  4.7725042100000001  7.5991786399999999
 -10.8625798200000006  2.4974120900000001 -0.0710719100000000
 -10.9891363500000008  1.3310868000000000 15.8236197700000005
 -10.6419686599999999 -1.1007328199999999  7.7804199599999997
 -2.0621368400000000  0.8204640000000000 15.6653011099999997
 -1.8035225600000000 -0.5055506500000000  7.7687784400000002
 -12.9081020399999993 16.5479104200000009 -0.0340984900000000
 -12.5609634099999994 14.4317380600000007 15.4685843100000007
 -12.0522456400000006 13.3404345499999994  7.7257815499999998
 -12.2801480299999994 10.9192300899999992  0.2260222600000000
 -13.2883652300000001  8.6554073900000006 15.5348769999999998
 -12.3211136999999997  7.4866629600000003  7.4419525200000001
 -12.5204840199999996  5.3415739200000001 -0.0673116000000000
 -12.2711976899999993  4.0744189200000003 15.6607192600000005
 -12.3480845499999994  1.8464882899999999  8.1541069299999993
 -12.8173299699999994  0.2901090900000000  0.1586555100000000
 -3.3703021299999998  1.2248452200000000  7.2331457500000003
 -3.4143430000000001 -0.0495568900000000 -0.0151263200000000
 -3.1471376900000001 -1.8761137100000000 15.7490330099999998
 -14.0532008400000006 15.4304252099999992  7.8643095399999998
 -13.8550942700000004 14.1654315799999999  0.3553160200000000
 -14.2217561200000002 11.5467471499999998 15.5752519800000009
 -13.8284219799999999 10.6127633800000005  8.4490835600000000
 -14.1066827499999992  8.4093334700000000 -0.1924410400000000
 -14.4052792499999995  6.5591263499999997 15.4105537699999999
 -13.7641871400000007  4.6472889100000003  8.3382447699999993
 -13.9380939200000000  2.5866112000000001 -0.0880371400000000
 -14.0891632399999995  0.9005220800000000 15.8541173000000004
 -4.8880189900000000  2.5625649199999998  0.1461258900000000
 -5.0370430700000002  1.0448710200000000 15.5972538600000004
 -4.9752514899999998 -0.9451371700000000  7.7637191999999997
 -4.7262238800000000 -2.5724495200000002 -0.2298058000000000
 -15.8391051500000000 14.5255986799999999 15.8374672699999994
 -15.6302629300000007 12.9238928699999995  7.6112750100000000
 -15.4224674099999994 10.9154637799999996  0.5713215300000000
 -15.9664698400000002  9.0386051599999995 15.6414539700000006
 -15.3924531000000009  7.2576380399999998  7.6461083099999998
 -15.6018241599999996  5.4860807999999999  0.1451386400000000
 -15.6101253500000006  4.0115836500000004 15.4039874500000007
 -15.2865606799999991  2.2173552500000002  7.9468886400000001
 -6.6148851200000003  3.8866449799999998 15.2475092700000001
 -6.3067622099999996  1.5431005600000001  8.2383257499999996
 -6.1116443900000004 -0.0990087100000000  0.3428447300000000
 -6.6018163400000001 -2.0573575100000001 15.5990490499999996
 -17.6675118200000014 15.3117514600000000  7.1776445899999999
 -16.8488280199999991 13.3599031499999992  0.2595479300000000
 -17.7006104600000000 11.6630422800000009 15.6458616599999996
 -17.0589354299999982  9.8272107599999998  8.2283062099999995
 -17.2225176799999993  8.2525566000000001 -0.2637361200000000
 -17.7555141399999989  6.6728698199999998 15.7214974999999999
 -17.1382928700000008  4.8839266500000003  7.3197013599999998
 -17.0338209499999991  3.1891994000000001  0.0439317000000000
 -8.1485187400000001  4.3575962099999996  7.6884074399999998
 -7.6655331400000000  2.4200217500000001  0.0387805900000000
 -8.2510658899999996  0.9834250400000000 15.4752476800000007
 -7.8914227600000002 -0.8780162400000000  7.8277907300000003
 -7.7987047900000004 -3.2857120700000002 -0.1671250300000000
 -18.9496734300000007 14.5006546699999994 15.5899996900000009
 -18.8230642199999991 12.7047726000000001  7.8273874499999998
 -19.1021694199999992 10.6699301200000001  0.1322064100000000
 -19.6465140299999987  9.0700637700000009 15.9762183800000006
 -19.3396151100000004  7.1050504300000004  8.0331338599999995
 -19.0927145600000010  5.9458057899999996  0.1993073200000000
 -19.0681993900000002  4.3002758800000001 15.4249657500000001
 -9.5204206300000003  5.3278260299999998  0.1348349500000000
 -9.4339122000000000  3.7374662500000002 15.5089046100000001
 -9.1402205999999993  1.6615927500000001  8.3249157399999998
 -9.6972113100000001 -0.4344928200000000  0.2721714300000000
 -9.6822925099999999 -1.9494977400000000 15.2874676500000000
 -9.7294018500000004 -4.0906281399999997  7.7601622199999998
 -20.5051285400000012 13.5731607800000003  0.3113827800000000
 -20.3317488200000014 11.9988880800000004 15.3360474500000006
 -20.7718879600000008 10.3123224800000006  7.8158314300000002
 -20.8456030500000011  8.7035520599999998 -0.2085716600000000
 -20.8947657999999983  6.4024650000000003 16.1536091100000014
 -20.4269013900000012  4.7789738100000001  7.6746240200000004
 -11.2492324600000000 -2.8891460000000002  0.1476932400000000
 -11.3102310199999998 -4.5642258900000003 15.5200319100000002
 -22.1345480700000010 12.9596967200000002  7.8232761499999999
 -22.7969931300000006 10.8595688300000006  0.0560651300000000
 -22.3211931300000010  9.0151188799999993 15.7125742600000002
 -22.2054946899999983  7.2096735599999997  7.2848783499999996
 -22.3212482399999992  5.2850747199999999 -0.2044202700000000
 -13.0948034199999999 -1.6686094600000001 15.3892632900000006
 -12.4444090200000002 -3.6527427600000002  7.9442782999999997
 -13.2799273899999992 -5.4898757800000002 -0.6420890299999999
 -23.6873641900000003 12.1124473600000009 15.4514407699999996
 -23.7914210600000011  9.9385009300000000  7.2437211799999996
 -24.1779897599999991  7.7167750100000001 -0.3887455400000000
 -23.4237169499999993  6.4339447099999996 15.3628049200000003
 -14.1019526699999993 -0.7290541699999999  7.6740175600000002
 -14.3867688099999995 -2.9635148999999998 -0.2240397000000000
 -14.4960532600000001 -4.9011830099999996 15.1032941899999997
 -14.5476908999999992 -6.7009973499999997  7.9414440199999996
 -25.3975115199999983 11.0899826000000008 -0.2126605000000000
 -25.6875053199999996  8.7812225500000007 14.9301036699999994
 -25.5176548099999998  7.2604146500000004  7.7861985100000002
 -15.8732401400000001  0.3481771600000000  0.1491881000000000
 -16.0341566499999999 -1.7084726100000001 15.0600344199999991
 -15.4053955400000007 -3.3359242299999998  7.4710543600000001
 -16.1356171599999989 -5.7611669599999997 -0.1821567900000000
 -15.9968152999999997 -7.4736436599999996 15.8994482599999998
 -27.2391048900000001 10.1050487400000009  7.6738589599999996
 -27.3873133399999986  8.0018234499999998 -0.1315678300000000
 -17.6282056900000015  1.2531467100000000 15.2232479900000008
 -17.3079543600000001 -0.6207875300000000  8.0572210900000005
 -17.2639824399999995 -2.7174500300000002 -0.1694109600000000
 -17.7999032200000009 -4.6507362499999996 15.4532229300000008
 -17.2246891799999986 -6.1159984200000004  7.2504967499999999
 -17.8392167099999988 -8.6613212399999995 -0.2155883000000000
 -28.4530575799999994  9.2764847600000007 15.0156173800000001
 -28.8166684199999992  7.1361082900000001  8.1177396399999999
 -9.6995584499999996 16.2158181399999997  0.2950968300000000
 -9.0766696400000004 14.5941266699999996 15.5779826400000001
 -9.0168952600000001 12.9586568700000004  7.8095100999999998
 -9.2424366899999999 10.7066604400000003 -0.3040749200000000
 -9.3168223200000000  8.8109281300000006 15.6426559699999999
 -9.3970778100000008  7.6001900100000004  7.9139569500000002
 -18.6989347200000005 -8.8593665599999998  7.5716786799999998
 -1.7364196700000001  2.6808899400000001 -0.3147111400000000
 -3.5543263399999998  3.9084731800000001 15.1146515899999994
 -5.0230983299999998  4.1656513200000003  7.2788034000000001
 -6.5621431200000000  5.4879978899999999 -0.1978406800000000
 -7.8690525500000001  6.4062599000000002 15.8997619500000003
 -27.0968365899999988  6.8202827600000004 15.1486895900000000
 -26.8952345800000003  4.4855253099999999  7.7421271400000000
 -7.4771438300000002 13.4967261399999998  0.3191008800000000
 -7.9762837800000002 11.5938182500000000 15.9383380999999993
 -7.4439749600000003  9.9960445500000006  8.1619305999999998
 -7.8803713000000002  8.0290006700000003 -0.2882408200000000
 -19.1646362699999990 -7.5007032300000001 15.4436482399999999
 -20.9241647999999998 -6.5113892699999996  7.2814862500000004
 -3.6195838299999998  4.9555142400000003 -0.4512926200000000
 -4.7464604100000001  6.5304723300000003 15.1491336299999997
 -5.7964931899999996  7.2060394399999996  7.4610281900000004
 -25.1893845499999998  4.9110475800000000 -0.3269732400000000
 -25.1527615100000013  3.5393785400000000 15.1688901600000001
 -24.7497770899999985  1.8052741400000001  8.1056894699999997
 -5.8943453400000001 10.2839774700000000  0.2822874000000000
 -6.2585421400000003  9.4185112400000008 15.4853754600000002
 -18.9602645500000015 -5.5787420299999999 -0.4076437300000000
 -20.7267806000000014 -4.3500251299999997 15.4470338300000005
 -21.7786918800000002 -3.8896595800000000  7.7650523500000004
 -4.5428995900000002  7.9887787399999999  0.0428700700000000
 -23.7554379699999991  4.8159485699999998  7.3223261800000001
 -23.1532251000000002  2.2757098899999999 -0.0753290800000000
 -23.8342891299999984  1.0477636699999999 15.3105322899999994
 -23.3891350500000001 -1.2423946100000001  7.5530890499999996
 -19.2333878600000006 -3.5154688500000000  7.6805443499999999
 -20.4736721400000015 -2.9635828900000001 -0.4259609000000000
 -22.0231036700000011 -1.7466999200000000 15.8231172400000002
 -21.9687789299999991  3.6115245699999998 15.2356229499999998
 -21.6697392099999995  1.9377840399999999  7.6341605699999997
 -21.6321519799999997 -0.3162496700000000 -0.3610307700000000
 -18.5928122800000004 -2.0953618899999999 15.2713147100000004
 -20.4887952700000007 -0.9396693100000000  7.4841337100000001
 -20.1965142799999988  2.7803703600000000 -0.2614655400000000
 -20.6282666100000007  1.1232130499999999 15.4419797100000000
 -18.9474583500000016  0.1328482100000000  0.0988451100000000
 -19.0872627100000010  1.7113380800000000  7.5555771199999997
 -0.0586595800000000  0.1936623300000000 17.7369166500000013
 -11.1149262800000006 16.9823033999999993 10.3630054600000001
 -11.2960085800000005 15.2166369699999997  2.5367020899999999
 -11.0836994099999995 13.8686105699999995 18.1298300099999992
 -10.9808495399999995 12.1326992600000008 10.2918071500000003
 -10.5679683799999999 10.1306981999999994  2.3518130799999999
 -10.9341215700000003  8.4047028000000008 17.7851908499999993
 -11.1403890000000008  6.3580663700000004 10.2644379000000008
 -10.9040739599999998  4.1971178699999996  2.6280421399999998
 -11.3160243900000008  3.0692678899999999 18.0883699500000006
 -10.8333195399999997  0.5418497900000000 10.4361887899999992
 -11.1162029499999999 -1.2377151200000001  2.7823809599999998
 -1.6892882800000000  0.8982678600000000 10.2017153999999994
 -1.8249035600000001 -1.1161591500000001  2.7251394400000000
 -12.3616675899999997 16.2177175099999999 18.0807082299999990
 -12.8988330500000004 14.3486031599999997 10.8213912699999995
 -12.4205876600000007 12.7443326100000007  2.7402903099999998
 -12.4925255499999999 11.1120809299999994 18.7489256600000012
 -12.7133150700000002  9.7471071899999995 10.2820113600000003
 -12.9595045300000002  7.3081038899999999  2.4781768700000000
 -13.0622141000000003  5.8131474299999999 18.1310827400000001
 -12.7120042800000004  3.3378829900000002 10.1159856500000007
 -12.5206540499999992  1.8372440400000001  2.3434729100000000
 -12.4876521000000000  0.2879741200000000 18.1086987199999996
 -3.6152490799999999  2.0032343899999998  2.8782268700000002
 -3.3086376899999999 -0.0871639400000000 18.4834152299999985
 -3.1034700499999999 -2.2052898600000002 10.4852678699999995
 -14.0585572699999997 15.5527912500000003  2.8187381000000000
 -14.1479516800000003 13.8214515400000000 18.3717428699999985
 -14.6189427999999992 11.8676154100000009 10.9516423799999991
 -13.9349928799999994 10.2403371500000002  2.8865027900000002
 -14.7923943599999994  8.4388606100000008 18.2917246800000015
 -14.0330032199999994  6.6929157799999999 10.5579660400000002
 -14.1833006800000003  4.6377597799999997  2.1651454900000000
 -14.4257629999999999  2.8198551100000002 17.8795807099999990
 -14.1992353599999994  0.6307224800000000 10.6697106999999995
 -4.4514594100000000  2.8861845000000002 18.2075342999999990
 -4.4102047200000003  0.2164636200000000 10.5631471099999992
 -4.3061713199999998 -0.9919270200000000  2.5311339099999999
 -5.0000317299999999 -2.6281991699999998 18.1590259900000000
 -15.7256287900000000 14.1206328100000000 10.2558096400000007
 -15.9212078300000002 13.1267939800000004  3.0557177300000000
 -15.9698226499999993 11.2308918599999998 18.3997181999999988
 -16.2080724099999998  8.9795273699999996 10.9925524400000008
 -15.7853718500000006  7.5770494700000004  2.7979969499999999
 -16.0883994299999991  6.2786223899999998 18.5498313400000008
 -16.1783461300000013  3.7112486900000001 10.1728507799999992
 -15.6287686899999994  1.5365654000000000  2.9837085399999999
 -6.0394582400000001  3.3266367500000000 10.1427084300000008
 -5.9122670499999996  2.1468607300000002  2.6495754599999999
 -6.8117822200000004 -0.1244241400000000 17.9902651899999988
 -6.4802027400000002 -2.4880533400000000 10.3741584299999996
 -17.3433833799999988 15.4378071299999995  2.5584340000000001
 -17.5721265399999993 13.8323023200000002 18.2576065999999990
 -17.7579014700000002 11.7121306999999995 10.3766205800000009
 -17.6821680699999995 10.2416277000000004  2.8667429100000001
 -17.6077487599999998  8.6079256799999992 18.2841625000000008
 -17.6842180099999986  6.4543397300000001 10.1371440100000001
 -17.4809218100000017  5.0977592300000003  2.9373546899999998
 -17.1522719099999996  3.1510197299999998 17.7660801200000016
 -7.9187152999999997  4.4881048100000003  2.1209851300000002
 -8.0217219100000001  2.9577472999999999 17.7950465700000002
 -7.5472178699999999  0.9127949100000000 10.5885265600000000
 -7.7055772500000002 -0.8659859500000000  2.2954060699999999
 -8.1902428599999997 -2.7751363499999999 18.0736204399999991
 -19.1490711599999983 14.5751525900000001 10.4018793400000007
 -19.2484737300000006 13.1951954199999992  2.7530315800000000
 -19.2061535899999996 11.3358493399999993 18.4024846000000011
 -19.2292808999999991  9.0820615700000005 10.4152226799999994
 -19.3728986499999998  7.5623205300000000  2.4733387200000001
 -19.1336386800000007  5.7716784700000003 18.2640381299999994
 -19.3832687700000008  4.0281893400000000  9.9300237500000001
 -9.9369427199999993  5.7817585300000003 18.3423826500000011
 -9.8052216800000007  3.7399125199999999 10.2651656899999999
 -8.9457778300000008  1.5406282200000001  2.3885328700000001
 -9.5534192900000008 -0.2445665400000000 18.0711725799999989
 -9.2199565200000002 -1.9196774299999999 10.1114347099999993
 -9.5790072500000001 -3.6917353300000002  2.4859806600000001
 -20.5581916699999994 13.5459169300000006 17.5377045500000008
 -20.4318129299999995 11.7100502500000001 10.2920084599999999
 -20.8365062099999996 10.6202772900000006  2.6155834800000002
 -20.6005124299999984  8.4299112600000008 18.2067707500000004
 -20.9827748900000017  6.6069147600000004 10.4779154499999994
 -20.5736010600000014  4.4966932599999998  2.2755934000000000
 -11.1413111300000001 -2.6621555799999999 18.7153059699999993
 -11.0097016500000002 -4.0178993900000002 10.8051971899999995
 -22.5426725400000016 13.3979214100000004  2.6216191599999998
 -21.7644758299999985 11.0032958500000007 17.8959569800000011
 -22.2849356299999997  8.9984345200000000 10.2734826899999998
 -22.5491279599999999  7.3424919500000003  2.1664180700000002
 -21.8040787499999986  5.7816822600000002 17.9452018899999999
 -12.1970839800000004 -1.6616822800000000 10.4207482799999998
 -12.7188487000000006 -3.6659317699999998  2.7411380200000002
 -12.9433275900000009 -5.5375506500000000 17.9399490099999994
 -23.3421081599999987 11.7884443900000004 10.4378721300000006
 -24.0238624999999999  9.9565627299999999  2.0001667900000002
 -24.1805590399999986  8.6572309999999995 17.6821694299999983
 -23.6905690500000006  5.4465864000000002  9.9825111300000007
 -14.5743062499999994 -1.0057964800000001  2.2316981299999998
 -14.3009395799999997 -2.6593835100000001 17.6653144100000006
 -14.2049323699999999 -4.9088410700000003 10.4657547999999991
 -14.3878513699999999 -6.4985535900000002  2.8720654699999999
 -25.4915550000000017 10.8275579799999999 17.8343708200000002
 -24.9754480600000015  8.7144842499999999  9.5863428600000002
 -25.8614537200000001  6.9816444700000000  2.4011631699999998
 -15.9396715100000002  0.2294695900000000 17.6353620800000002
 -15.2852295999999992 -1.7634888799999999 10.3823759500000001
 -16.3751088500000002 -3.6372789600000002  2.1904685000000002
 -16.1693286200000017 -5.5735666799999999 17.8682027900000016
 -15.4190404200000000 -7.2902066999999997 10.3536488799999997
 -27.5294958200000011  9.7281087700000004  2.3494887900000001
 -27.4003512200000010  8.2001939099999994 17.9071314500000014
 -17.0586788200000008  0.7701982900000000 10.3194014000000003
 -17.1664829700000006 -0.6910720800000000  2.9709665400000000
 -17.1592266400000000 -2.6580461700000000 17.4116917800000017
 -16.9026966999999999 -4.8453464799999999  9.7731765799999994
 -17.4231652200000013 -6.4190133700000001  2.4632120400000002
 -17.6278221799999990 -7.9317218399999998 17.9020190399999990
 -28.6251228600000012  8.8188879300000007 10.4619779899999994
 -29.1874474200000016  7.3527234699999999  2.7283888100000002
 -9.4031053100000008 16.5350280599999984 18.5604962700000016
 -9.5718284100000002 14.3377786000000000 10.7010055499999996
 -9.1052620799999993 12.8301990700000008  2.6545084900000000
 -9.2650526800000002 11.1696130799999995 18.6901008100000006
 -8.9214955099999997  9.1005129500000006 10.3528391899999992
 -9.5026996100000005  6.9908492899999999  2.3921323999999999
 -19.3939394800000002 -8.8121792200000009  2.3809780900000002
 -2.0175532899999999  3.1521140200000000 17.7664505800000008
 -3.2055273400000002  3.6616094700000001  9.6237197200000004
 -4.5912269700000001  4.8422841800000000  2.5698748299999998
 -6.4930577500000002  4.9485385600000003 17.6142042600000011
 -7.6366341999999996  6.1265692700000001 10.1041195800000008
 -27.1808819600000007  6.4010349399999997 10.3814626600000004
 -27.3335773099999990  4.4486783599999997  2.8917532700000002
 -7.7096121599999998 13.5034737000000007 18.4153675899999989
 -7.8478317700000000 11.8159919799999997 10.5201981700000005
 -7.9733217300000003 10.2145686999999992  2.7492756100000002
 -7.7810071199999999  8.3543397099999996 18.1406285700000005
 -18.3608533200000004 -7.4361055599999997 10.3763643299999995
 -20.9562213300000018 -6.0520578100000000  1.9836825400000000
 -3.4564338299999999  5.6538881800000000 18.2143857000000011
 -4.0524758199999997  6.7210969499999997 10.3209564100000009
 -6.1020133999999997  8.1213093599999997  2.2116187300000001
 -25.4552507199999987  5.1978948799999998 18.1199620400000008
 -25.4197931699999984  3.5620549200000000 10.1520852999999995
 -25.1453933700000007  1.1658479900000001  2.8027969100000001
 -5.9210628999999999 11.0186735400000000 18.6125019899999984
 -6.2539018700000000  9.0954042899999994 10.6094097900000008
 -19.4385599000000013 -5.3573474499999998 18.1983222500000004
 -20.1653457299999985 -5.0684640099999996 10.1959482599999998
 -22.0135264200000016 -3.5258609900000000  2.3354004000000002
 -4.8201802400000000  8.0134687299999996 17.8064768300000011
 -23.8523879799999996  4.2996108599999996  2.4811494199999999
 -23.3548571600000017  2.7453002400000002 18.1495520500000005
 -23.6852124400000008  0.7822172200000000 10.1716849400000005
 -23.4739272600000000 -0.7248313000000000  2.3493881900000000
 -18.8454151299999992 -3.3930392299999999  2.3095613799999999
 -20.5129903700000007 -2.7484064099999999 17.9796886200000010
 -22.0530462299999996 -1.9690458000000000  9.9553247900000006
 -22.1334648799999982  3.9579037100000001 10.0552605199999991
 -21.9914624900000000  1.8517967099999999  2.6416777900000001
 -22.0671490299999995 -0.0728265600000000 17.9409533900000007
 -18.6027957700000002 -1.7928711100000001 10.0048513200000002
 -20.3662543400000011 -1.0092428700000000  2.2647897600000002
 -20.2266342500000000  3.0419182500000002 18.3766067200000016
 -20.5247888299999985  0.6595504599999999 10.3432680599999998
 -19.1658186800000010  0.0274372200000000 18.0057986399999983
 -18.4146104699999995  1.9517175899999999  2.4895541200000002
 -0.4213491000000000  0.2197715200000000  5.1626320799999998
 -11.2440218299999994 17.2692887400000004 21.0676953900000008
 -10.6640374399999995 15.3191250199999995 12.8401730599999997
 -10.5928174899999998 14.1362714700000005  5.0545976000000001
 -10.7571276099999995 11.8017328300000006 20.8147960199999993
 -11.0097135500000007  9.6347162700000002 12.8191502400000008
 -11.0231788900000005  8.1858999200000007  4.7382592700000004
 -10.9532305300000008  6.2840135500000001 21.0732174199999989
 -11.1359928200000002  5.0025815700000003 13.1486764199999993
 -10.6134786600000002  2.6317455999999999  5.2027258200000004
 -10.8962744100000002  0.6140343600000000 20.9210386499999998
 -10.8794392599999998 -1.0239195200000000 13.5354042000000003
 -1.3115049200000000  1.0825631200000001 20.3328575700000016
 -1.4365119700000000 -1.0740467899999999 13.4398456100000008
 -12.6202888400000006 16.5719649900000014  5.2091909200000002
 -12.5336324000000001 14.3595256399999993 20.8768429399999995
 -12.6986186300000004 12.2968582400000006 12.9639433700000009
 -11.8479265599999994 10.9427617700000006  5.4909683800000000
 -12.2134003999999994  9.1393925199999995 20.9231492199999991
 -12.7210483500000002  7.3176860399999999 12.6586000700000003
 -12.4651459700000000  5.4683746299999996  4.9545571400000004
 -12.5170791099999992  3.5500679300000000 20.4829732699999987
 -12.2447019299999997  2.1444893800000000 13.1767328199999998
 -12.5772172900000001  0.0509417300000000  4.9782177200000000
 -2.8404955400000000  1.5525770400000001 13.0018124499999992
 -3.4175613299999998 -0.2172503500000000  4.7921438299999997
 -14.1148984700000000 16.9685859100000016 21.0306521699999998
 -14.2771425500000007 15.5395387899999999 12.9930203899999999
 -14.1271023000000007 13.6288134500000009  5.3250315199999996
 -13.9546791399999996 11.9906421999999999 20.9365944000000006
 -14.4258617499999993  9.5068251900000007 12.9456616300000000
 -14.6979323100000006  8.4473843100000003  4.9933604799999998
 -14.2530675999999996  6.3005155400000001 20.5178675800000008
 -14.1919582000000002  4.2176144400000002 12.8902626799999993
 -13.7036667100000003  3.1044620599999999  5.0411835299999996
 -14.7220537500000006  0.6548192100000000 20.7074531600000000
 -4.5118998299999999  3.2146924700000001  4.6816307300000002
 -4.8524454300000004  0.6557033900000000 20.5852622099999998
 -4.4191903899999998 -0.6429837400000000 12.9911301800000007
 -4.9201450400000004 -2.9335264400000001  5.1287395599999996
 -15.9763219500000009 14.2481079099999999 21.1745268499999995
 -15.5124645999999995 12.8383490200000008 13.2610705400000004
 -15.7909758399999998 10.7962827800000003  5.4501093300000001
 -15.8710683899999996  9.6279338600000006 20.6293033000000001
 -15.9816078600000004  7.2007447300000003 13.1579951200000007
 -15.2039424899999993  5.6010663699999998  5.5981420499999999
 -15.6774201400000006  3.6512511499999998 20.3524995900000008
 -15.8377188199999992  1.8125968500000000 13.0359476999999995
 -6.1648460700000003  3.3019633800000001 20.6243337099999984
 -6.1779225000000002  1.8083706300000000 12.9680736099999994
 -6.3941454499999999  0.2786205900000000  5.0243824699999999
 -6.0704054599999999 -2.1934116800000001 20.3205194099999993
 -16.8389170700000008 15.1170862600000007 13.0330069799999997
 -17.2823025500000007 13.5729112999999995  5.0369412000000002
 -17.9506683299999992 11.7581109300000008 21.1252885399999997
 -17.7510252900000012  9.7698900900000005 13.0673562499999996
 -17.4896880900000014  8.0749211299999999  5.7500333200000000
 -17.4071768599999999  6.7783791899999999 20.5088718499999985
 -17.1737753099999999  4.6964052199999999 12.7299411800000009
 -17.1910109200000001  3.3189650099999999  5.0442000599999997
 -8.0121626599999995  4.1652002799999996 13.0818928000000003
 -7.8511683400000001  2.9603514600000000  5.3988547799999997
 -7.8450712600000001  0.2985712200000000 20.8284156799999991
 -7.4176736300000004 -0.8143634800000000 12.8021397399999994
 -8.0240567499999997 -2.1360831800000000  4.6889699499999997
 -19.7996517400000016 14.5569805500000005 20.5141832800000010
 -18.7927952800000000 12.7647705299999998 13.1466724999999993
 -18.8024612500000003 11.0325037800000008  5.7899040199999998
 -19.1302075199999990  8.9792620000000003 20.6278684000000005
 -19.5553139700000003  7.0997877500000000 12.9674482799999993
 -19.3904767999999983  6.2966849900000001  4.8513269799999996
 -18.9855506399999996  3.9757499900000002 20.6958936300000005
 -9.1213943000000004  5.8788950299999998  5.2516551800000002
 -9.5523772999999998  3.3756144699999999 20.8906269699999996
 -9.6152769199999994  1.7229641899999999 12.8015415800000003
 -9.3762700399999996  0.0000169100000000  5.2914260899999999
 -9.3452990600000003 -1.9675455600000000 21.1146275699999997
 -9.1264646299999992 -3.0602745100000002 12.9603067799999998
 -20.7662380999999989 13.6051731100000008  4.8845500599999996
 -20.8723821299999983 11.4799415299999996 20.9380356200000008
 -21.0296360000000000  9.8596865200000003 12.5700190799999998
 -21.0503261299999984  8.6403397099999992  5.2129557699999998
 -20.4343053099999992  6.7086498499999996 20.9085164100000007
 -21.0722966999999990  4.5109592100000002 12.9973924699999994
 -11.0209983800000000 -2.8353566699999999  5.1959871599999996
 -11.2304821900000000 -4.9096076200000001 20.5278186200000015
 -22.1006278999999992 13.0547570499999992 12.8322017499999994
 -22.5357987000000008 11.5195296400000000  5.2235261299999998
 -22.5182443899999996  9.0911460000000002 20.8157011899999986
 -22.3000682300000008  7.0476539599999999 13.3575998899999995
 -22.0060007400000011  5.5603563300000003  5.0717937299999996
 -12.6605309800000008 -1.6817954500000001 20.8256534199999983
 -12.7536582999999997 -3.4722175300000000 12.9542315899999991
 -12.9705958999999993 -5.4639500200000004  5.8517108200000001
 -24.0533961299999994 11.6825745399999992 20.3251531199999995
 -23.7056751599999984 10.2546769900000001 12.8141639099999995
 -24.1506256300000004  8.1608499600000002  4.9258473299999999
 -23.9221240900000005  6.7688544500000001 20.2209712199999991
 -14.4312253100000003 -0.1607975700000000 13.2242105599999995
 -14.3596853600000003 -2.2918549399999999  5.4308946200000001
 -14.7878922799999994 -4.3831398699999999 20.3986168799999987
 -14.3015359600000007 -6.9437154799999998 12.7277336000000005
 -25.5054946499999993 10.9018172500000006  5.5013772000000003
 -25.9195630100000010  9.3069070099999998 20.7014476599999995
 -25.1394472600000007  7.3646302500000003 12.3752408700000007
 -15.9483124899999993  0.5035152800000000  5.0606096400000000
 -15.9535566099999997 -1.4407941500000001 20.4474987100000014
 -15.8268829100000001 -3.7981098400000000 12.6920171300000000
 -15.9696899099999996 -5.1025862100000001  5.3042942499999999
 -16.5590694499999991 -7.4575116100000001 20.1568485399999986
 -26.4519081100000015 10.0235821200000004 12.3504996800000004
 -27.0302288399999995  8.2830208100000000  5.1113873300000003
 -17.4453570199999994  1.6706008699999999 20.8242979999999989
 -17.6563597899999998 -0.7027454100000000 12.1254097999999999
 -17.2473772399999987 -2.3863900899999999  5.2020485900000004
 -17.8736697900000010 -4.9831935500000002 20.5148658200000007
 -17.2930546800000009 -6.5381180199999998 12.4719747999999999
 -17.6709572299999991 -8.1829812099999995  5.0121026700000000
 -28.9275987599999986  8.9118101099999993 20.2449297299999991
 -28.5992596299999988  6.8257580899999999 13.0391239199999998
 -9.4220430200000003 16.4448242100000002  5.2776023800000003
 -9.1786114600000008 14.7045909600000009 20.8955521799999993
 -9.4652849099999994 12.0718551800000000 13.3942760599999993
 -8.8625909000000007 10.9289158200000003  5.1248982300000003
 -9.7073296199999994  8.9657383100000008 20.5733919400000005
 -9.0439962099999995  7.0743487600000003 12.8812741800000001
 -18.7371222199999998 -9.2160857099999998 12.9719736900000004
 -1.5572112499999999  2.9694349500000001  5.4224001700000004
 -3.1228727799999998  3.1451589400000000 20.5739472700000015
 -4.3231820799999996  4.5995018500000002 12.3968024400000001
 -6.6092092500000001  5.5510107399999997  4.5192723700000004
 -7.9856101900000001  6.2498258599999996 20.2445277300000015
 -26.4746283700000014  6.6231649900000003 20.5831423800000017
 -26.6128817899999994  4.2285837900000001 13.2509085500000001
 -26.6716971100000002  2.5918466200000001  5.6512437599999998
 -7.3648244399999996 11.6758585299999993 21.3493787899999994
 -7.7599320100000000 10.3033778700000003 13.0587783599999998
 -8.4089528300000005  8.6128920200000003  5.2067551099999996
 -18.8382276600000012 -7.3403479000000003 20.4246259899999991
 -20.5541709300000015 -6.7255451600000002 12.8728229499999998
 -22.1984471600000006 -5.5005099599999996  4.8095161199999996
 -4.9722940099999997  6.4983713099999996 20.3839828099999991
 -6.4627551399999996  6.8727191000000003 13.1282306000000002
 -25.3240829100000013  5.1416202100000001  5.2359382500000002
 -25.1317627899999998  3.9361454000000000 20.9747913100000005
 -25.3559099299999993  1.6661401499999999 13.0212321800000002