Li                                      
   1.00000000000000     
    21.2169999999999987    0.0000000000000006    0.0000000000000000
     0.0000000000000006   21.2169999999999987    0.0000000000000000
    -0.0000000000000006   -0.0000000000000006   21.2169999999999987
   Li
   500
Direct
  0.9887889564971459  0.9877228717537818  0.0020216142715768
  0.9794274855069034  0.0923563119196871  0.0886184865909385
  0.9947755186878453  0.2010881184898921  0.1928359909506554
  0.9967807475137889  0.2868481151906508  0.2969403761134970
  0.0051271108073720  0.4089106966112084  0.3883873780459055
  0.0118589286892572  0.5273309129471642  0.5167431163689500
  0.9984621902248207  0.5854019112032773  0.5968810463307719
  0.9873723019276994  0.6862562096432114  0.6921852886836035
  0.0058853471273039  0.7872750091907434  0.8058461153791754
  0.0061767167837132  0.8962661559127127  0.8851478074185763
  0.0902859457039185  0.0155148018098714  0.1187053942593224
  0.0847591393693747  0.0968388928689237  0.2022010152236433
  0.0861395701560070  0.1894474732525779  0.2857766361879612
  0.0846706339256258  0.2749664787670270  0.4065600527878601
  0.0866391002497977  0.3845446000848369  0.5127315105811405
  0.1155879950040060  0.4771515515859903  0.6075276306735162
  0.0932610034406380  0.6063305439034750  0.6988987444030741
  0.1167027426120555  0.6888299528679838  0.7758063750765913
  0.1099643870481231  0.8063477607578804  0.9016736187962451
  0.0917355875005867  0.9313627713625863  0.0085798732148774
  0.1990648819342979  0.0153252891549229  0.2061894018947044
  0.1947010953480728  0.1064658255172759  0.2999907739077159
  0.1845751562426372  0.1929868694914489  0.3934090248385758
  0.2064516906254426  0.2805539769995775  0.5156439562614850
  0.1981455431964960  0.3675183018334351  0.6073541169816679
  0.2006984809351025  0.5122794716500891  0.6873818084554841
  0.2006408846679548  0.5882745251449322  0.7884794900315768
  0.2023507404439826  0.6919399165763309  0.9013443912900030
  0.1778087090540623  0.7914366069661085  0.0170706989678067
  0.1797069416034347  0.9057559442899574  0.0896033072536184
  0.2822765334401680  0.9992141622284052  0.2878460988829730
  0.3027128670405830  0.0899380633454285  0.3727474534571300
  0.3154227426120570  0.1964432280718285  0.5162604067493035
  0.3009505538011936  0.2845904270160702  0.5758429363246478
  0.3217189932601201  0.3934279530565092  0.7122520106518380
  0.2804425503134311  0.5026812659659683  0.8356017731064682
  0.2780947066031985  0.5997524767874793  0.9398429528208538
  0.3016065343828060  0.6930307635386725  0.0498454432766167
  0.2852439741716566  0.8128807074515692  0.0972514964415296
  0.2925767592025252  0.9105928161379993  0.1833064985624731
  0.3915715963614090  0.0206526408069010  0.4038094466701239
  0.3908824744308816  0.0852000216807269  0.5204197200358180
  0.4004569383041883  0.2012837776311471  0.5990784983739488
  0.3867635212329716  0.2914400754112236  0.6883748013385471
  0.3891823104114636  0.3960789154922963  0.8283529146439150
  0.4212020912475865  0.5048498854691985  0.8918086256303894
  0.3954572870811148  0.5842015529999500  0.0178450742329233
  0.3872977155111457  0.7153141254654258  0.1166394961587400
  0.4121267422350030  0.8255644162699696  0.1902090441626996
  0.4114723401046305  0.9213334326247846  0.2834623839374117
  0.5070615704388004  0.9899350351133549  0.4989502997596276
  0.5134645072347652  0.1126001446952927  0.6203856120092368
  0.5052709303860112  0.2038834043455751  0.7083412301456349
  0.4895870594334752  0.3106224876278461  0.7826429947683451
  0.5219826064005275  0.3738522628081284  0.8885143648960749
  0.4966902139793561  0.4811005099684209  0.9788506249705407
  0.4924902083235168  0.5859917217325759  0.0910167035867460
  0.5181171584107105  0.6882996516943933  0.1908217834755135
  0.5239686218598294  0.7968054074562829  0.2890437083470800
  0.5156105472027122  0.9165848102936351  0.3858592586133796
  0.6185902342461205  0.0039156242635627  0.5904160786162009
  0.5997289428288610  0.0905824353113047  0.6957369910920477
  0.6002867012301465  0.2139366847339375  0.7539917481265022
  0.6062094928594988  0.2755922727058504  0.8919536904369139
  0.6062768030352998  0.3950061361172672  0.9665761158505006
  0.5993808955083182  0.4941886996276565  0.0656167738134528
  0.6068568567658019  0.5939168355563922  0.1879852589904303
  0.5918125927322464  0.6807392991469072  0.3071564825375859
  0.5989173709761033  0.8165507390300206  0.3951283829005021
  0.6133769401894682  0.8842678422962749  0.4992849875100163
  0.7052735000235657  0.9780112061083059  0.6930454079276060
  0.7156711561483746  0.1188966182777946  0.7731558274025545
  0.7113708064288105  0.1712150563227581  0.8601441051986640
  0.6969916128576159  0.2732620657962954  0.9871156530140937
  0.6971092293915291  0.4016241584578424  0.0860369430173904
  0.6883963944007192  0.5029075364094808  0.1815138351322076
  0.7091255031342811  0.5835403902530985  0.2920084814064197
  0.6987771734929566  0.7150183409530086  0.3784945826459918
  0.7127009534806987  0.7861751383324673  0.5371487260215844
  0.6961812867040607  0.8891869463166344  0.6116689668661905
  0.8069400447754163  0.9904264052410809  0.7661986737050483
  0.8210914634491218  0.0732039397652855  0.8654749139840661
  0.7864959244945098  0.1822921096290742  0.9780908040722096
  0.7920374741952187  0.2922772941509137  0.0904160663618825
  0.7988330192769979  0.3923329617759350  0.1732449337795146
  0.8052331870669747  0.4878690790403937  0.3029758787764507
  0.7987166258189191  0.5892033925625668  0.3879432290144678
  0.7973961281048219  0.6756391751897084  0.5117471207050954
  0.8214600141396033  0.8009519036621597  0.6263783056039998
  0.7884097648112345  0.9018271310741355  0.6938918546448605
  0.9105338294763641  0.9825479766225200  0.8904511354102809
  0.8927479846349655  0.0805590780977496  0.0372842875995687
  0.8798464801809871  0.2014495489465986  0.0890448074657115
  0.8953242173728597  0.3002883004194743  0.1910165918838658
  0.9081520577838518  0.3873358990432223  0.3067258297591522
  0.9221686642786437  0.4988276104067495  0.3963798642597922
  0.9008774572276934  0.5813030994014241  0.5045169585709601
  0.8933362096432091  0.6937044440778593  0.6182718546448598
  0.8965991365414538  0.8183745143045655  0.7211739147853109
  0.9160136876089950  0.9155762214262140  0.7918214563793171
  0.0958075293396803  0.0821990762124685  0.0185493081019956
  0.0818773686195016  0.1983792562567785  0.0990519408964516
  0.0632088259414587  0.3050841801385715  0.1758860352547487
  0.0830667012301447  0.3957679671961145  0.3074333157373772
  0.0994995814676898  0.4905565390960049  0.4153331908375364
  0.1216102262336776  0.5862023782815697  0.5057216057878122
  0.0667910303058861  0.6818037550077776  0.6055767907809795
  0.1055594103784685  0.7974066498562493  0.6963668072771867
  0.1060379898194839  0.8911030541546836  0.7961632191167425
  0.1087461945609647  0.0112507611820689  0.9272827633501421
  0.1854911462506479  0.1213293406230846  0.0856013621152840
  0.1633304552952808  0.2148016698873576  0.1826138780223374
  0.1797342263279447  0.2883705839656869  0.3055532959419338
  0.2017320653249755  0.3616808917377554  0.4090057783852572
  0.2033452561625140  0.4703001347975686  0.4919431677428463
  0.2014611481359267  0.5970287363906266  0.6021325474855104
  0.2187309629071024  0.6897332662487656  0.6849115431022312
  0.2222596582928773  0.8050348282038016  0.7774942649761982
  0.1973996634773982  0.8904490045718063  0.9091421600603269
  0.2065630499128090  0.0322980925672809  0.0080801390394498
  0.3022581910731930  0.1384319102606426  0.1786566682377355
  0.2882495579016791  0.1833765273130012  0.3002166753075386
  0.3055667738134531  0.2722735004948831  0.4006935971155201
  0.3248254484611408  0.3992682796813867  0.4966972658717097
  0.3181903327520388  0.4783437361549687  0.6168359631427620
  0.3080047589197363  0.6000332719046071  0.7101682391478548
  0.2890930074939888  0.6904739623886513  0.8229606136588572
  0.2934612145920710  0.8083188292407044  0.9128169750671660
  0.2932050030635835  0.9154606457086274  0.0285124536927910
  0.2857014116039025  0.0095313032002622  0.1108493081019972
  0.4038177631144819  0.0795539015883477  0.2991747641042579
  0.4093807621247123  0.1833573436395355  0.4126169826082844
  0.4330486944431371  0.3014410246500461  0.4907970000471309
  0.3939616576330280  0.4182637606636206  0.5916692897205067
  0.4016297831927247  0.5051361488429080  0.7232201239572049
  0.3945040005655827  0.6337309633784258  0.8086794348871180
  0.3781940585379644  0.7059223961917311  0.9338809440542946
  0.3783426483480241  0.8188987345053462  0.0378825130791327
  0.4060781627939889  0.9377411033605156  0.1196827831455920
  0.4078449290663144  0.0172393274261182  0.2080759650280442
  0.5103844124994126  0.0948653037658502  0.4260377640571207
  0.5105648809916588  0.2092896417966728  0.5007513998208992
  0.4991966625818947  0.3108337394542104  0.5877118612433421
  0.4711469147381848  0.4239892949050272  0.6881955761889031
  0.4771511405948061  0.5178620780506193  0.8245694876749781
  0.5066093269548020  0.6258888537493519  0.9262085247678726
  0.4816859900080104  0.7126919258142053  0.0106320766366608
  0.5093691949851546  0.8186705698260823  0.1140808252816115
  0.5083363543385033  0.9193762949521584  0.2027558943300178
  0.5171831974360188  0.0080629674317763  0.3260440915303775
  0.6221558858462544  0.1192395258519099  0.4698525620964347
  0.6034948456426434  0.2172056318046884  0.5991940222463086
  0.5731099674789064  0.3350945237309730  0.6924918183532043
  0.5895374784371015  0.4184769062544191  0.7898983791299443
  0.5843879902908071  0.5170239553188480  0.8895337276712070
  0.5764569637554757  0.6270805872649277  0.9827739067728700
  0.5845435579959499  0.6918259193099843  0.0882756336899675
  0.6080082066267636  0.8123900725833053  0.1970088716595200
  0.6112262336805401  0.9223008601593037  0.2979086652212857
  0.6089624485082723  0.0016553367582617  0.4184901927699514
  0.7000929349106855  0.1097161101946540  0.5853930984587805
  0.6820775778856571  0.2133445553094191  0.6551085648300869
  0.6882136828957925  0.3045915855210453  0.7754710849790243
  0.6751870080595737  0.4103451350332250  0.9085730451996028
  0.6873469925060078  0.5138906395814686  0.9856244963944008
  0.7032874784371046  0.6161860640052765  0.0964916995805254
  0.6814657901682608  0.7047434990809265  0.2052423141820228
  0.6952504684922474  0.7953488056746920  0.3063470551915941
  0.6840784946033835  0.9113920035820300  0.4071183975114323
  0.7083741716548033  0.9916325300466582  0.5140406438233498
  0.7828544959230825  0.1185255215157639  0.6926985021445091
  0.7876178719894398  0.2230534745722750  0.7984894066079065
  0.7923321935240608  0.2989625187349745  0.8884637050478403
  0.7777186892586130  0.3956180699439145  0.9854094235754332
  0.7943982047414835  0.5062690535891008  0.0937546707828645
  0.7918558962152957  0.6054374430880927  0.2149726384502983
  0.8326967441202839  0.7188693604185303  0.2958269562143556
  0.7770004453975616  0.8052300688127474  0.4113999387283798
  0.8089367210255958  0.9045297973323301  0.5177411570910095
  0.8060314412970726  0.9945227501531804  0.6162973134750445
  0.8958711731158999  0.0869261342319803  0.7818115727953980
  0.8812136965640747  0.1890991992270372  0.8841990342649737
  0.8697436583871436  0.3025585478625601  0.9753648230192766
  0.8526605721826854  0.4096241320639109  0.0898789470707442
  0.8700538195786365  0.5029702761936150  0.1915474506292156
  0.8982525950888416  0.5905377668850420  0.3189430192769933
  0.8948447395956052  0.6929020624970548  0.4146626521185865
  0.8993200810670672  0.7906142442381139  0.4925162332092157
  0.9274460357260708  0.8978983409530059  0.5972293853984993
  0.9194393679596544  0.0124638813215796  0.7040387792807650
  0.9738818353207321  0.1162902158646375  0.9035259023424587
  0.9813754413913358  0.1982696196446270  0.0036789767639149
  0.9702395102983488  0.3069593646604147  0.0898085087429905
  0.9735860880426088  0.4138017566102619  0.1853652373097034
  0.0024206146014976  0.5104537682047408  0.3068511415374431
  0.0069020898336234  0.6167358783051355  0.3995334071734931
  0.0132787613706000  0.6668947871989417  0.5100295249092710
  0.9966068412122340  0.7871386609794015  0.5806568676061659
  0.0205127181034044  0.8962739383513210  0.6918981199038541
  0.0188261092520179  0.0070132671914038  0.7955846844511498
  0.1939013069708224  0.1754267210255946  0.9998540915303735
  0.1971271536975081  0.3119070707451570  0.0780774704246596
  0.1857460178159016  0.3768758688787273  0.1844813484470009
  0.1950333449592279  0.4645941325352325  0.3122407286609814
  0.2127815190648974  0.6148017990290811  0.3957295541311225
  0.1864886440118738  0.6871397615119932  0.5135550252156307
  0.2100440264881911  0.8099320587264955  0.6115745798180683
  0.2149681858886723  0.9174860842720491  0.7007465565348525
  0.1823517203186142  0.9987481708064294  0.8080036136117243
  0.2239273799311903  0.0856476438704803  0.8858265994249876
  0.3085234689164338  0.2082730536833637  0.0941698637884727
  0.2957977089126658  0.2844846491021329  0.1947589583824296
  0.2816149978790605  0.3701638464438872  0.3194175467785243
  0.3051525451289052  0.4814051048687347  0.3908610034406337
  0.2937279035678912  0.5899480953952008  0.5008663175755288
  0.3157883122024785  0.7029664203233281  0.5908078917848911
  0.3233899858603948  0.7913898515341486  0.6976830781920142
  0.3285643286044220  0.9035434882405582  0.7971330536833676
  0.3102701479945296  0.0084949578168434  0.9255748937173038
  0.3338137352123312  0.1195119705896204  0.0060538172220390
  0.4093217085356073  0.2103154003864844  0.1877774110383186
  0.4091470844134406  0.2843618390912965  0.2884847636329368
  0.4282814101899390  0.3768027671207079  0.3892577117405835
  0.3917677748974882  0.5094659480605159  0.4933374921053897
  0.4111309614931429  0.5902232078050602  0.6000575821275405
  0.3906175232125193  0.7023589206768150  0.6950610114530775
  0.3634640462836387  0.7887178536079560  0.7897669123815803
  0.4188407479851080  0.8886038794363031  0.9179026719140282
  0.4002287849366084  0.9956283235141612  0.0012924654757995
  0.4182471174058549  0.1015146448602522  0.1023154913512769
  0.4975351534147165  0.1788973648489431  0.3108136706414655
  0.5036296351981875  0.2697902446151659  0.3968773964273922
  0.5128001630767756  0.4101236989206782  0.5060265433378888
  0.5004586312862358  0.5131015341471468  0.6037433807795622
  0.4932666286468432  0.6276975104868754  0.7136064170240815
  0.4803437507658970  0.7265402851487011  0.8174966555120875
  0.4782558462553581  0.7978622934439343  0.9143374840929468
  0.5036362751567154  0.9000875646886897  0.0069053339303409
  0.5058764349342511  0.0105586774756077  0.1024457793278941
  0.5268060786162039  0.0964789678088351  0.1996915369750667
  0.6174110911061916  0.1872046811519041  0.3970705335344320
  0.6204547537352099  0.2932322444266404  0.4901914040627773
  0.5994478126031026  0.4033642362256700  0.5984590743271880
  0.5726394386576814  0.5044192991469103  0.6935160993542908
  0.5781010312485293  0.6175394730640491  0.8077591836734683
  0.6195124829146437  0.7370787514728789  0.9072424235283023
  0.5840701291417290  0.8069473893575889  0.0017387670264384
  0.5888608431917817  0.9164006117735752  0.0987960795588450
  0.6031329537634917  0.0113783084319152  0.2080914752321235
  0.5947823782815647  0.0965221789131334  0.2976386935004953
  0.7093390319083781  0.2131363722486697  0.5031577409624362
  0.6956926111137278  0.3267774572276920  0.6080136965640790
  0.6897701112315602  0.4039405231653888  0.6936527916293542
  0.6875051317339853  0.5063134957816828  0.8005467106565476
  0.7095228071829212  0.5838766927463794  0.8987386557948795
  0.7293243102229354  0.7148412249611127  0.0090664933779507
  0.6817255431964924  0.8145192143092785  0.1179513508036010
  0.7170465791582217  0.9022173106471243  0.2161466046095128
  0.6990623674412006  0.0262198802846783  0.3116145242022910
  0.7342666663524540  0.1106337413394911  0.4019962148277330
  0.8014217693359100  0.2375212570108900  0.6091744129707308
  0.7818642569637575  0.3329680331809399  0.7018770156007008
  0.7911915176509368  0.4189821379082801  0.8138841617570804
  0.7875377343639514  0.4963993528774111  0.8983294876749781
  0.7877289725220322  0.6057830513267675  0.0137155163312457
  0.8206753683367083  0.7056819489088966  0.1528207833341213
  0.8251627251732074  0.8094230013668309  0.2054147254560021
  0.7848510010840357  0.9186853937880031  0.3137762445209020
  0.8192998458783052  0.0329923834660875  0.4140264156101239
  0.7869597346467430  0.1314396526370345  0.5198128180232828
  0.8851562713861512  0.2074921807984182  0.7151087528868345
  0.8872780727718350  0.3166800381769335  0.8208217057076865
  0.8909285549323656  0.4092564250365243  0.8856881335721383
  0.8997510095678010  0.5020100551444600  0.0113298105292898
  0.9169326064005290  0.6011200843663076  0.0918505302351917
  0.9147564099542791  0.7076300782391485  0.2192484700947332
  0.9159886812461693  0.8115154314936106  0.3317681147193312
  0.9058278625630365  0.8869056374605293  0.4179467653296882
  0.9122806075316987  0.0111106636187941  0.5136478286279882
  0.8794852226987757  0.1281263138049695  0.5998557779139375
  0.0014107460998289  0.1974696314276301  0.8218845119479639
  0.0165345322147346  0.2848672559739853  0.8947089376443387
  0.9898349860960565  0.3870493354385616  0.0090673620210211
  0.9765093547626904  0.4948620087665532  0.1056680972804855
  0.9837796762030422  0.5908205754819278  0.2050730673516554
  0.0032676655512063  0.6941827751331502  0.3152312513550442
  0.0245735740208346  0.8012805863222923  0.3915593033887887
  0.0307534481783449  0.9000528316915677  0.5001160187585398
  0.0162567785266532  0.0161025729367950  0.5923732968845741
  0.0094909633784255  0.1233175562049311  0.6936019314700488
  0.1183635631804663  0.1716605184521853  0.9135643257764983
  0.1129320620257346  0.2714890012725633  0.9990393806852964
  0.0809569797803675  0.4021285747278114  0.0820700122543272
  0.0852351656690402  0.4938558405995224  0.1903097775368821
  0.0910407253617365  0.5922927275298093  0.3014670259697425
  0.1304676306735146  0.7059956294480827  0.4047630706508940
  0.1274738337182413  0.7918620120657991  0.5197227501531785
  0.1001121746712528  0.8971233246924655  0.6142145741622258
  0.0924168171749074  0.9839880798416374  0.7079672371211743
  0.1051745260875734  0.0840252019606922  0.7986275491351265
  0.2908871928170811  0.3129282301927674  0.0061217575529042
  0.3112737177734815  0.3955923664985619  0.0753464976198330
  0.3019173672055402  0.4762368525239182  0.1944330951595390
  0.3008786383560320  0.5998525748220800  0.2941880143281352
  0.2800523551868750  0.7092886836027716  0.4058094890889379
  0.3006969778950861  0.8186359084696235  0.4884610524579358
  0.3037180854974793  0.9075093038601096  0.6008667417636815
  0.3318181364000594  0.0125157746146982  0.7100722623368085
  0.3021438714238585  0.0949469958052518  0.8074930517980832
  0.2996992044115601  0.2048823646132831  0.9066769345336283
  0.3836364401187708  0.3037277522741206  0.0757309501814589
  0.3843136470754587  0.3846218117547267  0.2234751897063703
  0.3819366432577667  0.4715621544044879  0.2726269877928047
  0.3787015336758230  0.6085235311307002  0.3907083258707615
  0.3870598454069878  0.7100454050996845  0.4901271343733811
  0.4197209280294132  0.8187525418296673  0.5799511193853988
  0.4026115134090560  0.8889103275675154  0.7026698562473470
  0.4098092506009365  0.0001455351840534  0.8048353127209324
  0.4060576622519676  0.0998130173917176  0.9066311396521627
  0.4185768883442549  0.2072956544280515  0.0179581321581779
  0.5031992930197475  0.2955103836546158  0.1999045986708765
  0.5078790663147501  0.3879999618230698  0.2828066753075333
  0.4862342744026051  0.4855612636093696  0.3866763463260625
  0.4969085299523996  0.5986186138473855  0.4748231719847311
  0.5054807597681119  0.6953928962624332  0.5912180110288929
  0.4878198171277717  0.7821002705377751  0.6899692081821200
  0.4870961493142261  0.8736043276617806  0.7783658043078674
  0.4912730348305629  0.9864544341801391  0.9123602116227545
  0.5049294287599579  0.0936278752886821  0.9821692020549548
  0.5152075180279994  0.2036450275722288  0.1067701951265505
  0.6015682179384427  0.2792225154357340  0.2788724857425677
  0.6093960361973885  0.4128470372814235  0.3690810788518633
  0.6137203977942249  0.5090058820756909  0.4925666889758205
  0.5916329745015787  0.6117536084272075  0.5993291766036677
  0.5990187538294762  0.6954306395814669  0.7352036649856259
  0.6009948498845290  0.8125129363246444  0.7797246872790708
  0.5938257736720587  0.9118932153461827  0.8843759518310819
  0.5988245176038092  0.9977006211999822  0.9873353999151604
  0.6194435721355518  0.1032375392374050  0.0869977885657747
  0.6102701522364171  0.1806302205778394  0.2138289376443439
  0.7053250157892279  0.2917158924447349  0.3798245642645028
  0.6987910566998181  0.4067176165339106  0.4801473469387787
  0.7148277565160015  0.4994367318659556  0.5954921694867323
  0.6809720054673107  0.5922231686854857  0.7061758316444369
  0.7245680020738092  0.6957708266955720  0.8080196667766444
  0.6914751807512829  0.8146743220059420  0.9021539788848543
  0.6905366013102707  0.8958471810340782  0.9984040227176294
  0.7191336932648369  0.9922252962247242  0.1277941216948690
  0.7198504322005945  0.1012641056699835  0.2261702172786002
  0.7248368280152704  0.1983044407786210  0.3127480525050643
  0.7937760550501949  0.2995224965829308  0.4941373596644212
  0.8013977098553013  0.3885802545128882  0.5706862553612666
  0.7986458773624889  0.4959570429372704  0.7266899415563017
  0.8263997879059275  0.6092770165433379  0.7887227020785232
  0.7992162944808427  0.7239295937220120  0.8918819503228548
  0.8175654201819285  0.7945816821416756  0.0087264867794659
  0.7856885384361618  0.8966104175896703  0.1080952161002955
  0.8283728052976400  0.0068892548428181  0.2162868921148160
  0.8162914243295489  0.1012758486119623  0.3178811240985979
  0.8001929221850403  0.2280399142197282  0.3914401762737398
  0.9025836150256836  0.2885970848847634  0.5817344671725522
  0.8999444469057849  0.4018000829523487  0.6980002031389887
  0.8975605127963391  0.4831042899561666  0.8139225102512171
  0.8796081208464912  0.6031627223452887  0.8953473648489449
  0.8853388707168790  0.6901341787246054  0.9941205052552178
  0.9124088674176392  0.8074732059197842  0.0939303379365626
  0.8987826940660781  0.9001614780600491  0.1924017476551825
  0.9048140476975988  0.9828703860112142  0.3267056120092349
  0.9039808375359399  0.1154047669321798  0.4269001965405081
  0.8967044879106396  0.2140756798793433  0.5019638916906288
  0.0028468303718725  0.2867139143139923  0.7099832285431518
  0.0075979162935411  0.3815138393740867  0.7808492303341694
  0.9967866088513944  0.5066693575906100  0.8967558481406428
  0.9900937366262923  0.5997838582268926  0.0044061059527749
  0.9804505439034727  0.7110693236555576  0.1140377056134199
  0.9952498675590320  0.8193649483904437  0.2244550266295917
  0.0139529745015778  0.9155620158363575  0.3051921091577512
  0.9813618310788499  0.9950117759343939  0.3979396818588867
  0.0177106961398863  0.0968895216100307  0.4957766465570046
  0.0113289791205133  0.2105848381015250  0.6009006994391299
  0.1087502596974090  0.2840013173398717  0.8386936979780373
  0.0952026459914208  0.4043764071263638  0.9080538634114177
  0.0869465409812875  0.4992135957015620  0.9963358943300165
  0.0709917575529033  0.6003658118489881  0.1047496964698098
  0.0996621954093442  0.6964838049677127  0.2033169576283171
  0.1165942121883390  0.8118697704670765  0.2929875222698755
  0.1013158910307794  0.9139818235377319  0.3984646085686023
  0.1351029325540836  0.0069103134279089  0.4924872423056996
  0.1062813371353144  0.1010056379318485  0.6249084540698462
  0.1164419672903776  0.2099064877221082  0.7231753664514287
  0.1992371683084286  0.3069243196493403  0.9176048979591869
  0.1777888697742398  0.3954980562756276  0.9990970966677679
  0.1898980713578737  0.4753370844134395  0.1029192326907662
  0.1946882542301012  0.5873480671159896  0.2110308780694723
  0.2009248692086558  0.7071056652684149  0.2838157034453488
  0.2112804953574994  0.7984141551585964  0.4038609982561141
  0.2069665390960083  0.9135390564170223  0.5086295758118524
  0.2038974987038671  0.9979226417495397  0.6114817485978250
  0.2094963746052727  0.0838439746429742  0.7044576217184328
  0.2115043969458483  0.1904786939718122  0.8238906447659886
  0.4164676259603155  0.4034673360984087  0.9893499872743590
  0.3931988471508703  0.4728531116557448  0.0858072569166239
  0.3925875274544026  0.5895557637743352  0.1706055865579472
  0.3787051043974188  0.7190217240891741  0.2707263001366798
  0.3980062002168054  0.8346936791252304  0.3902314111325822
  0.4463428778809444  0.9157493090446351  0.4990882207663674
  0.4227124329547038  0.0188896714898448  0.6060843389734671
  0.3991106966112099  0.1129924338973467  0.7053328048263197
  0.4081612994297004  0.2127762732714302  0.8110506636187935
  0.4178664792383486  0.3149289508413062  0.9211344685865086
  0.5003834034029282  0.3643090012725665  0.1158046764387066
  0.4873887123533009  0.4784859810529269  0.1744534100014121
  0.4963242480086691  0.5726404510534024  0.2726632841589307
  0.4775204934722126  0.7010657439788872  0.3782728529009773
  0.5071536371777370  0.7963011434227241  0.4794600937927100
  0.5186550186171459  0.8982541381910707  0.6013581411132591
  0.4839262473488262  0.0055631823537752  0.7025086671065637
  0.5131487924777289  0.1043472088419648  0.8057675152000741
  0.5145415124664154  0.2111326092284500  0.8926928882499894
  0.5110634561907901  0.3041330649950496  0.0059527190460500
  0.5945791106188452  0.3889958669934472  0.1847730772493748
  0.5954212621954085  0.5289749055003057  0.2695607277183356
  0.5856017127774891  0.5973638685959344  0.4008007904039204
  0.6127377041994606  0.6915352043172902  0.4659684130649921
  0.5970971843333146  0.7639560545788768  0.5823880006598472
  0.5761261686383534  0.8874373012207215  0.6807966036668702
  0.5978517419993423  0.9968897063675328  0.7793677155111496
  0.6096568680774865  0.0831683664043013  0.8826336461328168
  0.5929972291087324  0.1875140326153542  0.9802287340340285
  0.6116878116604596  0.2823842187868237  0.1198310647122582
  0.6983803468916463  0.4083739529622505  0.2891709567799410
  0.7033854701418676  0.5060039600320465  0.4015388414950252
  0.6938230037234305  0.6109340863458570  0.4995289277466171
  0.6951724499222323  0.6865718631286200  0.6092061841919190
  0.7045572163830869  0.7948487962482886  0.7027390922373584
  0.6952246132818019  0.8818973045199598  0.7918458438987628
  0.7041358396568782  0.0008421572324053  0.8615924683037193
  0.7027299915162359  0.0940829400952055  0.9821131121270668
  0.6933318537022188  0.1902925319319380  0.0898174935193481
  0.7023281953150757  0.2812091125041221  0.2026001974831502
  0.7842538049677117  0.3807026507046203  0.4262017537823439
  0.7994780162134134  0.5136085407927595  0.5128712914172624
  0.7950082664844231  0.5725155554508206  0.6027261695809969
  0.8038010284206081  0.7044404411556755  0.7100177579299611
  0.7963284187208401  0.8061023264363456  0.7954409841165102
  0.8047531314511929  0.9114816010746125  0.8962662176556506
  0.8057368506386382  0.0098633232785019  0.9760801234858860
  0.8040064608568613  0.1193840217749909  0.1004771357873437
  0.8077598953669209  0.1929428981477130  0.2160178060046221
  0.8148111561483731  0.3279713757835694  0.3057907310175807
  0.9333781712777522  0.4021260927558075  0.4954298397511394
  0.9009375213272364  0.4878709841165119  0.6103542272705837
  0.9057008281095378  0.5970647914408289  0.7133221657161712
  0.9021495140689098  0.7194797869632836  0.7998524697176776
  0.8956979228920190  0.7986390790403917  0.8931026950087215
  0.8899505085544632  0.8874892218504016  0.9955828067115959
  0.8855709407550520  0.9907789216194587  0.0902417556676269
  0.8863895890088145  0.1018676947730626  0.1976254281943710
  0.9080577541594010  0.2056146919922668  0.2988070617900718
  0.9075868124617017  0.2871136235094482  0.4061410199368396
  0.0005140528821244  0.3799116486779468  0.5952161540274332
  0.0041745505962183  0.4860000551444585  0.6806570547202710
  0.0042200579723826  0.5783898953669251  0.8072726983079619
  0.9908086383560359  0.6900235066220475  0.8906014691049648
  0.9882603501908847  0.7997723999622934  0.9764710265353287
  0.0156682165244817  0.9131718240090478  0.1064321270679187
  0.9642337502945750  0.0185426158269308  0.2023254593015054
  0.9680330635810890  0.0931861780647623  0.3057349144553925
  0.0008312037517086  0.1833756247348859  0.4035988504501091
  0.0060185120422318  0.2808401022764784  0.4842674487439282
  0.1033971046802122  0.3665242154875799  0.7000462812838748
  0.0913471084507691  0.4872870655606363  0.7853014606211985
  0.0906016401941869  0.5810461403591489  0.8878857991233460
  0.0976505203374671  0.6824085714285744  0.0123834029316114
  0.0979299047933253  0.8125562770419918  0.1032243201206597
  0.0954688829712040  0.9291812494697638  0.2226956506574922
  0.0952068237733883  0.0127776448131200  0.3007010797945071
  0.0947229867559045  0.1049522684639683  0.3911748282038019
  0.1096101965405083  0.1840576368006808  0.5146873709761053
  0.1045775123721526  0.2803995432907556  0.6063481010510472
  0.2013375010604719  0.4111461620398771  0.8029725573832280
  0.1862724508648697  0.5005091040203595  0.9121024122166190
  0.1705209845878315  0.5839105448461126  0.0121303506622041
  0.1582249559315656  0.7134396762030448  0.1009262525333483
  0.1850650483103138  0.8218977994061376  0.1933203888391404
  0.2065806721025609  0.9350550897864949  0.3069190842249157
  0.1984207880473221  0.0152051944195719  0.3924924994108494