Li 
 1.0000000000000000
    21.2169999999999987    0.0000000000000006    0.0000000000000000
     0.0000000000000006   21.2169999999999987    0.0000000000000000
    -0.0000000000000006   -0.0000000000000006   21.2169999999999987
 Li 
 500
Cartesian
 -0.2378647100000000 -0.2604838300000000  0.0428925900000000
 -0.4364870400000000  1.9595238699999999  1.8802184300000000
 -0.1108478200000000  4.2664866100000003  4.0914012199999998
 -0.0683028800000000  6.0860564600000000  6.3001839600000000
  0.1087819100000000  8.6758582499999992  8.2404150000000005
  0.2516108900000000 11.1883799800000006 10.9637387000000004
 -0.0326277100000000 12.4204723500000007 12.6640251599999996
 -0.2679218700000000 14.5602979999999995 14.6860952699999991
  0.1248694100000000 16.7036138700000016 17.0976370300000013
  0.1310514000000000 19.0160790300000002 18.7801810300000014
  1.9155969100000001  0.3291775500000000  2.5185723499999999
  1.7983346600000001  2.0546307900000000  4.2900989400000000
  1.8276232600000000  4.0195070399999997  6.0633228900000002
  1.7964568400000001  5.8339637800000004  8.6259846400000004
  1.8382217900000000  8.1588827800000008 10.8786244599999993
  2.4524304899999998 10.1237244700000009 12.8899137400000008
  1.9787187100000001 12.8645151500000008 14.8285346600000008
  2.4760820899999998 14.6149051100000005 16.4602838600000005
  2.3331143999999999 17.1082804400000015 19.1308091699999991
  1.9463539599999999 19.7607239200000002 21.3990391700000018
  4.2235595999999997  0.3251566600000000  4.3747205400000002
  4.1309731400000000  2.2588854199999999  6.3649042500000004
  3.9161310899999999  4.0946024100000002  8.3469592800000001
  4.3802855200000002  5.9525137299999997 10.9404178200000004
  4.2040539900000002  7.7976358100000001 12.8862322999999996
  4.2582196699999999 10.8690335499999993 14.5841798300000001
  4.2569976499999997 12.4814205999999999 16.7291693399999986
  4.2932756599999999 14.6808892100000001 19.1238239499999985
  3.7725673799999999 16.7919104899999994  0.3621890200000000
  3.8128421800000001 19.2174238700000011  1.9011133700000000
  5.9890612100000000 -0.0166731200000000  6.1072306799999998
  6.4226589000000001  1.9082158899999999  7.9085827200000001
  6.6923243299999999  4.1679359700000003 10.9534970499999993
  6.3852678999999997  6.0381550900000001 12.2176595799999994
  6.8259118799999996  8.3473608800000001 15.1118509099999994
  5.9501495899999997 10.6653884199999993 17.7289628199999996
  5.9003353900000004 12.7249482999999994 19.9406479300000008
  6.3991858400000003 14.7040337099999991  1.0575707700000001
  6.0520214000000001 17.2468899700000016  2.0633849999999998
  6.2076010999999998 19.3200477799999994  3.8892139800000001
  8.3079745599999999  0.4381870800000000  8.5676250300000003
  8.2933534600000005  1.8076888600000001 11.0417451999999994
  8.4964948600000003  4.2706379099999996 12.7106484999999996
  8.2059616299999991  6.1834840800000004 14.6052481600000004
  8.2572810800000003  8.4036063500000004 17.5751637900000013
  8.9366447699999991 10.7114000199999992 18.9215036099999985
  8.3904172599999995 12.3950043500000007  0.3786189400000000
  8.2172956300000006 15.1768198000000005  2.4747401899999999
  8.7440930899999998 17.5160002199999987  4.0356652899999998
  8.7302086400000007 19.5479314399999993  6.0142214000000003
 10.7583253400000007 -0.2135483600000000 10.5862285099999998
 10.8941764499999998  2.3890372700000002 13.1627215300000007
 10.7203333300000008  4.3257941899999999 15.0288758799999993
 10.3875686399999996  6.5904773199999998 16.6053364200000004
 11.0749049599999996  7.9320234599999999 18.8516092800000017
 10.5382762700000008 10.2075095200000003 -0.4487262900000000
 10.4491647499999996 12.4329863599999992  1.9311014000000000
 10.9928917500000001 14.6036537099999997  4.0486657800000003
 11.1170422500000008 16.9058203300000010  6.1326403599999999
 10.9397089800000007 19.4471799200000000  8.1867758899999998
 13.1246290000000005  0.0830778000000000 12.5268579399999993
 12.7244489800000000  1.9218875300000000 14.7614517400000000
 12.7362829400000006  4.5390946400000001 15.9974429199999992
 12.8619468099999992  5.8472412499999997 18.9245814500000016
 12.8633749300000009  8.3808451900000005 -0.7091545500000001
 12.7170644599999996 10.4852016399999997  1.3921910900000001
 12.8756819300000007 12.6011334999999995  3.9884832399999999
 12.5564877799999994 14.4432457099999993  6.5169390900000002
 12.7072298600000000 17.3247570300000007  8.3834388999999998
 13.0140185400000004 18.7615108100000008 10.5933295800000007
 14.9637878499999992 -0.4665362400000000 14.7043444200000000
 15.1843949200000008  2.5226295500000000 16.4040471900000000
 15.0931543999999995  3.6326698500000001 18.2496774799999990
 14.7880710499999992  5.7978012500000000 -0.2733671900000000
 14.7905665200000005  8.5212597700000003  1.8254458200000001
 14.6057062999999996 10.6701891999999994  3.8511790399999999
 15.0455158000000004 12.3809764599999994  6.1955439500000002
 14.8259552899999996 15.1705441400000005  8.0305195600000001
 15.1213761299999998 16.6802779100000009 11.3966845200000009
 14.7708783599999993 18.8658794400000005 12.9777804700000008
 17.1208469299999990 -0.2031229600000000 16.2564372599999984
 17.4210975800000014  1.5531679899999999 18.3627812500000012
 16.6870840300000012  3.8676916900000000 -0.4648474100000000
 16.8046590900000012  6.2012473500000000  1.9183576800000000
 16.9488401700000004  8.3241284499999999  3.6757377600000001
 17.0846325300000004 10.3511182500000007  6.4282392200000000
 16.9463706499999986 12.5011283800000008  8.2309914899999992
 16.9183536500000002 14.3350363800000000 10.8577386600000008
 17.4289171200000013 16.9937965400000017 13.2898685099999998
 16.7276899800000010 19.1340662399999992 14.7223034800000008
 19.3187962599999992 -0.3702795800000000 18.8927017399999997
 18.9414339900000002  1.7092219600000000 22.0080607300000004
 18.6677027699999982  4.2741550799999999  1.8892636800000000
 18.9960939199999999  6.3712168699999996  4.0527990300000001
 19.2682622099999996  8.2181057699999993  6.5078019300000003
 19.5656525499999994 10.5836254099999998  8.4099915799999998
 19.1139170100000015 12.3335078599999992 10.7043363100000004
 18.9539143599999989 14.7183271900000001 13.1178739400000008
 19.0231438799999992 17.3634520700000010 15.3011469499999997
 19.4350624100000005 19.4257806899999999 16.8000758400000016
  2.0327483499999999  1.7440178000000000  0.3935606700000000
  1.7371921299999999  4.2090126799999998  2.1015850299999999
  1.3411016600000001  6.4729710499999999  3.7317740100000001
  1.7624261999999999  8.3970089600000009  6.5228126599999996
  2.1110826199999999 10.4081380899999996  8.8121243099999997
  2.5802041700000000 12.4374558600000000 10.7298953099999999
  1.4171052900000001 14.4658302699999997 12.8485227700000006
  2.2396540100000002 16.9185768900000006 14.7748145500000003
  2.2498080300000001 18.9065334999999983 16.8921950199999991
  2.3072680100000000 21.4557074000000014 19.6741583899999988
  3.9355656500000000  2.5742446200000000  1.8162041000000000
  3.4653822700000001  4.5574470299999996  3.8745186500000002
  3.8134210799999999  6.1183586800000000  6.4829242799999998
  4.2801492300000001  7.6737834800000000  8.6778756000000001
  4.3143763000000002  9.9783579600000003 10.4375581900000007
  4.2744011799999999 12.6671586999999999 12.7754462600000007
  4.6408148400000000 14.6340707099999996 14.5317682099999992
  4.7156831700000001 17.0804239500000001 16.4960958200000007
  4.1882286600000000 18.8926565300000000 19.2892692100000005
  4.3826482300000000 21.9022686299999982 21.3884363099999995
  6.4130120399999999  2.9371098400000002  3.7905585300000002
  6.1157908699999997  3.8906997799999998  6.3696972000000001
  6.4832102400000000  5.7768268599999999  8.5015160499999993
  6.8918215399999996  8.4712750900000007 10.5384258899999992
  6.7510442900000003 10.1490190499999997 13.0874086300000005
  6.5349369700000004 12.7309059300000005 15.0676395299999992
  6.1336863399999997 14.6497860600000003 17.4607553399999986
  6.2263665899999996 17.1501005999999983 19.3672377599999983
  6.2209305500000003 19.4233285199999983  0.6049487300000000
  6.0617268500000003 21.4192256599999986  2.3518897700000001
  8.5678014800000000  1.6878951300000000  6.3475909699999997
  8.6858316299999991  3.8902927599999999  8.7544945199999997
  9.1879941499999997  6.3956742200000001 10.4132399499999995
  8.3586844899999999  8.8743022099999997 12.5534473200000001
  8.5213791099999998 10.7174736700000004 15.3445613699999992
  8.3701913799999996 13.4458698499999993 17.1577515699999985
  8.0241433400000002 14.9775554799999995 19.8141519899999992
  8.0272959700000008 17.3745744500000008  0.8037532800000000
  8.6157603799999993 19.8960529900000012  2.5393096100000001
  8.6532458600000002 21.5827668099999990  4.4147477500000001
 10.8288260800000007  2.0127571500000001  9.0392432399999993
 10.8326550800000003  4.4404983299999996 10.6244424500000001
 10.5914555900000007  6.5949594500000002 12.4694825599999994
  9.9963240899999999  8.9957808700000008 14.6014455400000003
 10.1237157500000006 10.9874797100000006 17.4948908199999984
 10.7487300900000005 13.2794838100000003 19.6513662700000005
 10.2199316499999995 15.1211845900000004  0.2255807700000000
 10.8072862099999991 17.3697334800000007  2.4204528700000001
 10.7853724300000007 19.5064068500000012  4.3018718099999997
 10.9730758999999995 21.3880719799999994  6.9176774900000000
 13.2002814300000004  2.5299050200000002  9.9688618099999999
 12.8043501400000004  4.6084518900000004 12.7130995700000007
 12.1596741799999997  7.1097005099999997 14.6925989099999992
 12.5082166800000003  8.8788245200000002 16.7592739100000010
 12.3989599899999998 10.9696972600000002 18.8732371000000008
 12.2306874000000008 13.3047688199999996 -0.3654860200000000
 12.4022606700000004 14.6784705300000002  1.8729441200000001
 12.9001101200000008 17.2364801700000001  4.1799372300000002
 12.9683869999999999 19.5684573499999992  6.3207281499999999
 12.9203562699999992 21.2521212800000008  8.8791064199999994
 14.8538718000000003  2.3278467100000002 12.4202853700000002
 14.4716399700000000  4.5265314300000004 13.8994384199999992
 14.6018297100000005  6.4625196699999998 16.4531700100000009
 14.3254427500000006  8.7062927299999995 19.2771943000000014
 14.5834411399999997 10.9032177000000008 -0.3050050600000000
 14.9216504299999997 13.0736197199999999  2.0472643900000000
 14.4586596699999994 14.9525428199999997  4.3546261800000003
 14.7511291900000003 16.8749156099999986  6.4997654699999998
 14.5140934200000000 19.3370041400000012  8.6378310400000000
 15.0295748000000007 21.0394673899999987 10.9064003399999994
 16.6098238400000007  2.5147559899999998 14.6969841199999998
 16.7108883900000009  4.7325255700000000 16.9415497399999992
 16.8109121500000001  6.3430877600000004 18.8505344299999997
 16.5008574299999999  8.3938285900000000 -0.3095682600000000
 16.8547467100000006 10.7415105099999995  1.9891928500000000
 16.8008065500000008 12.8455662299999993  4.5610744700000003
 17.6673268199999995 15.2522512199999998  6.2765605300000002
 16.4856184500000005 17.0845663700000010  8.7286725000000001
 17.1632104100000014 19.1914087100000010 10.9849141299999999
 17.1015690900000017 21.1007891900000004 13.0759801000000007
 19.0076986800000007  1.8443117899999999 16.5876961399999985
 18.6967110000000005  4.0121177100000001 18.7600509100000004
 18.4533512000000002  6.4193847100000001 -0.5226845500000000
 18.0908993600000016  8.6909952100000005  1.9069616199999999
 18.4599318900000000 10.6715203499999998  4.0640622600000000
 19.0582253100000010 12.5294398000000005  6.7670140400000003
 18.9859208399999986 14.7013030600000008  8.7978974900000004
 19.0808741600000005 16.7744624199999990 10.4497169200000002
 19.6776225400000015 19.0507090999999988 12.6714158700000006
 19.5077450699999986 21.4814461700000017 14.9375907800000007
 20.6628508999999987  2.4673295099999999 19.1701090699999988
 20.8218427400000010  4.2066865199999999 21.2950568500000017
 20.5855716899999983  6.5127568399999998  1.9054671299999999
 20.6565760300000001  8.7796318699999993  3.9328942400000000
 21.2683581799999999 10.8302975999999997  6.5104606699999996
 21.3634416400000013 13.0852851300000008  8.4769003000000005
 21.4987354800000006 14.1495066999999999 10.8212964300000003
 21.1450073500000002 16.7007209699999990 12.3197967599999991
 21.6522183400000010 19.0162441499999986 14.6800024100000002
 21.6164335600000008 21.3658004900000016 16.8799202500000014
  4.1140040300000003  3.7220287399999998 -0.0030957400000000
  4.1824468200000000  6.6177323200000000  1.6565696900000000
  3.9409732599999998  7.9961753099999999  3.9141407699999999
  4.1380224800000001  9.8572937100000004  6.6248115399999996
  4.5145854900000000 13.0442497700000004  8.3961939500000007
  3.9567295599999999 14.5790443199999995 10.8960969700000003
  4.4565041100000000 17.1843284899999986 12.9757778600000009
  4.5609799999999998 19.4663022499999983 14.8677396900000005
  3.8689564500000002 -0.0265600600000000 17.1434126700000000
  4.7510672200000004  1.8171860600000000 18.7945829599999996
  6.5459424400000001  4.4189293799999998  1.9980020000000001
  6.2759399900000004  6.0359107999999999  4.1322008200000004
  5.9750254099999998  7.8537663300000000  6.7770820900000004
  6.4744215499999997 10.2139721100000003  8.2928979100000006
  6.2320249299999997 12.5169287400000009 10.6268806599999994
  6.7000806199999996 14.9148385399999999 12.5351710399999998
  6.8613653299999999 16.7909184799999984 14.8027418700000002
  6.9711493600000001 19.1704821900000013 16.9127720000000004
  6.5830017300000003  0.1802375200000000 19.6379225200000000
  7.0825260200000004  2.5356854800000002 21.3454438400000015
  8.6845786900000004  4.4622618500000000  3.9840733300000002
  8.6808736900000003  6.0333051400000004  6.1207812300000004
  9.0868466800000007  7.9946243099999998  8.2588808700000005
  8.3121368800000006 10.8093390199999995 10.4671415700000008
  8.7229656099999993 12.5227658000000002 12.7314217200000002
  8.2877319899999993 14.9019492200000006 14.7471094800000007
  7.7116166699999997 16.7342267000000007 16.7564845799999986
  8.8865441500000006 18.8535085100000011 19.4751409899999999
  8.4916541300000006 -0.0927538600000000  0.0274222400000000
  8.8739490900000000  2.1538362200000001  2.1708277800000002
 10.5562033500000005  3.7956653899999999  6.5945336499999998
 10.6855099700000000  5.7241396199999999  8.4205477200000001
 10.8800810600000002  8.7015945200000004 10.7363651699999991
 10.6182307799999993 10.8864752500000002 12.8096233099999992
 10.4656380599999999 13.3178580800000006 15.1405873500000006
 10.1914533600000006 15.4150052300000002 17.3448265399999997
 10.1471542899999996 16.9282442800000013 19.3994983999999988
 10.6856508500000000 19.0971578599999994  0.1465104700000000
 10.7331803200000007  0.2240234600000000  2.1735921000000000
 11.1772445699999992  2.0469942600000000  4.2368553400000000
 13.0996111200000005  3.9719217200000001  8.4246455099999995
 13.1641885100000007  6.2215085300000004 10.4003910200000007
 12.7184842400000004  8.5581790000000009 12.6975061799999995
 12.1496909700000000 10.7022642700000006 14.7143310799999991
 12.2655695799999993 13.1023350000000001 17.1382265999999994
 13.1441963499999996 15.6385998700000002 19.2489625000000011
 12.3922159300000008 17.1210027599999997  0.0368914200000000
 12.4938605099999993 19.4432717799999999  2.0961564199999998
 12.7966718799999999  0.2414135700000000  4.4150768300000003
 12.6194977200000000  2.0479110700000001  6.3150001600000003
 15.0500462400000004  4.5221144100000004 10.6754977899999997
 14.7605101300000001  6.9332373100000000 12.9002265999999999
 14.6348524500000003  8.5704060799999997 14.7172312800000000
 14.5867963799999991 10.7424534400000002 16.9851995600000016
 15.0539453999999999 12.3881117900000000 19.0685380600000016
 15.4740738899999997 15.1667862699999993  0.1923637900000000
 14.4641708500000004 17.2816541699999995  2.5025738099999999
 15.2135772700000000 19.1423446800000008  4.5859825100000000
 14.8320062499999992  0.5563072000000000  6.6115253599999999
 15.5789358599999996  2.3473160900000001  8.5291536899999993
 17.0037656800000008  5.0394885100000000 12.9248535199999992
 16.5888139400000014  7.0645827600000004 14.8917246399999996
 16.7867104299999994  8.8895440200000007 17.2681802600000012
 16.7091881099999995 10.5321050700000001 19.0598567400000007
 16.7132456100000013 12.8528990000000007  0.2910021100000000
 17.4122692900000011 14.9724539100000005  3.2423985599999998
 17.5074775400000000 17.1735278200000003  4.3582842299999998
 16.6521836900000011 19.4917480000000012  6.6573905800000004
 17.3830848300000014  0.6999994000000000  8.7843984600000002
 16.6969246899999995  2.7887551099999999 11.0288685599999994
 18.7803606099999989  4.4023615999999999 15.1724624099999996
 18.8253788700000015  6.7190003699999998 17.4153741300000000
 18.9028311500000008  8.6831935700000002 18.7916451299999991
 19.0900171699999994 10.6511473399999996  0.2403845900000000
 19.4545591100000017 12.7539648299999993  1.9487927000000000
 19.4083867499999982 15.0137873699999993  4.6517947900000003
 19.4345318499999991 17.2179229099999986  7.0391240899999996
 19.2189497600000010 18.8174769099999999  8.8675765200000001
 19.3558576500000008  0.2357349500000000 10.8980659800000002
 18.6600379700000012  2.7184560000000002 12.7271400400000001
  0.0299318000000000  4.1897131700000001 17.4379236900000016
  0.3508131700000000  6.0440285700000000 18.9830395299999992
 -0.2156711000000000  8.2120257500000005  0.1923822200000000
 -0.4984010200000000 10.4994872400000006  2.2419600200000001
 -0.3441466100000000 12.5354401499999994  4.3510352699999997
  0.0693300600000000 14.7284759399999992  6.6882614599999997
  0.5213775200000000 17.0007702000000016  8.3077137400000005
  0.6524959100000000 19.0964209300000007 10.6109615700000006
  0.3449200700000000  0.3416482900000000 12.5683842400000003
  0.2013697700000000  2.6164285899999999 14.7161521799999999
  2.5113197199999999  3.6421212199999999 19.3830942999999998
  2.3960795600000000  5.7601821400000004 21.1966185399999993
  1.7176642400000000  8.5319619699999993  1.7412794500000000
  1.8084345100000001 10.4781393699999992  4.0378025500000003
  1.9316110700000000 12.5666747999999995  6.3962258900000002
  2.7681317200000000 14.9791092700000004  8.5878580699999993
  2.7046123299999998 16.8009363100000009 11.0269575900000003
  2.1240800100000001 19.0342655799999996 13.0317906200000007
  1.9608076100000000 -0.3397249100000000 15.0209408700000004
  2.2314879200000002  1.7827627100000001 16.9444807100000006
  6.1717535699999999  6.6393982600000001  0.1298853300000000
  6.6042944700000001  8.3932832400000006  1.5986266400000000
  6.4057807799999997 10.1043172999999999  4.1252869800000003
  6.3837420700000003 12.7270720799999992  6.2417870999999998
  5.9418708200000001 15.0489780000000000  8.6100599300000003
  6.3798877799999998 17.3689980700000000 10.3636781500000001
  6.4439866200000004 19.2546248999999996 12.7485896600000004
  7.0401854000000004  0.2655471900000000 15.0656031899999991
  6.4105865199999998  2.0144904100000001 17.1325800800000003
  6.3587180200000004  4.3469891299999999 19.2369645200000008
  8.1396143500000004  6.4441917200000001  1.6067835699999999
  8.1539826499999997  8.1605209799999994  4.7414731000000003
  8.1035497599999999 10.0051342299999995  5.7843267999999997
  8.0349104400000009 12.9110437600000001  8.2896585500000004
  8.2122487399999997 15.0650333599999993 10.3990274100000004
  8.9052189300000002 17.3714726800000001 12.3048228999999996
  8.5422084799999993 18.8600104199999983 14.9085463399999991
  8.6949228699999992  0.0030878200000000 17.0761908300000016
  8.6153254199999996  2.1177327899999998 19.2359928899999986
  8.8809458400000008  4.3981918999999996 21.5980176899999989
 10.6763794000000001  6.2698438100000002  4.2413758699999997
 10.7756701499999998  8.2321951900000006  6.0003092300000000
 10.3164326000000006 10.3021533299999994  8.2041120400000001
 10.5429082800000007 12.7008911300000005 10.0743232400000000
 10.7247852800000008 14.7541510799999998 12.5438725400000006
 10.3500730599999997 16.5938214399999993 14.6390766899999996
 10.3347189999999998 18.5352630199999986 16.5145872699999998
 10.4233399799999997 -0.2873962700000000 19.3575466100000000
 10.7130876900000001  1.9865026299999999 -0.3783160400000000
 10.9311579099999996  4.3207365500000003  2.2653432300000000
 12.7634728800000001  5.9242641100000002  5.9168375299999996
 12.9295556999999999  8.7593755899999994  7.8307932500000001
 13.0213056799999993 10.7995777999999998 10.4507874399999992
 12.5526768200000003 12.9795763100000006 12.7159671400000001
 12.7093808999999993 14.7549518800000001 15.5988161600000002
 12.7513077300000006 17.2390869699999989 16.5434186899999993
 12.5992014399999999 19.3476383500000004 18.7638045700000013
 12.7052597899999995 -0.0487859200000000 -0.2687048200000000
 13.1427342700000001  2.1903908699999999  1.8458320800000001
 12.9481018199999998  3.8324313900000000  4.5368085699999998
 14.9648808599999992  6.1893360900000003  8.0587377799999995
 14.8262498500000000  8.6293276700000003 10.1872862600000005
 15.1665005100000005 10.5965491400000005 12.6345573600000005
 14.4481830400000000 12.5651989700000009 14.9829326199999997
 15.3731592999999993 14.7621696300000007 17.1437532700000013
 14.6710289100000004 17.2849450900000008 19.1410009700000003
 14.6511150699999995 19.0071896400000000 -0.0338618500000000
 15.2578595700000008 -0.1649558900000000  2.7114078799999999
 15.2730666199999998  2.1485205299999999  4.7986535000000003
 15.3788629799999992  4.2074253199999996  6.6355754300000003
 16.8415465600000012  6.3549688099999999 10.4841123599999992
 17.0032552099999990  8.2445072600000007 12.1082502800000000
 16.9448695799999989 10.5227205799999997 15.4181804899999992
 17.5337242999999994 12.9270304599999992 16.7343295699999999
 16.9569721199999996 15.3596141900000003 18.9230593399999982
 17.3462855199999986 16.8586395499999995  0.1851498700000000
 16.6699537199999988 19.0233832300000003  2.2934562000000001
 17.5755858099999998  0.1461693200000000  4.5889589900000001
 17.3192551500000000  2.1487696800000000  6.7444838100000002
 16.9776932299999999  4.8383228599999999  8.3051862199999995
 19.1501165600000007  6.1231643499999997 12.3426601900000001
 19.0941213300000001  8.5249923600000006 14.8094703100000000
 19.0435413999999987 10.2500237199999997 17.2689939000000017
 18.6626455000000000 12.7973034800000001 18.9965850399999994
 18.7842348200000018 14.6425768699999992 -0.1247452400000000
 19.3585789400000010 17.1321590099999987  1.9929199799999999
 19.0694724200000003 19.0987260799999987  4.0821878800000002
 19.1974396499999997 -0.3634390200000000  6.9317129700000004
 19.1797614299999992  2.4485429399999998  9.0575414700000003
 19.0253791200000002  4.5420436999999998 10.6501678900000005
  0.0604012000000000  6.0832091200000002 15.0637141600000000
  0.1612049900000000  8.0945791299999996 16.5672781200000010
 -0.0681785200000000 10.7500037600000002 19.0264688299999989
 -0.2101811900000000 12.7256141199999995  0.0934843500000000
 -0.4147808100000000 15.0867578400000006  2.4195380000000002
 -0.1007835600000000 17.3844661100000017  4.7622622999999997
  0.2960402600000000 19.4254792899999984  6.4752609799999998
 -0.3954460300000000 -0.1058351500000000  8.4430862300000005
  0.3757678400000000  2.0557049799999998 10.5188931100000005
  0.2403669500000000  4.4679785100000000 12.7493101400000004
  2.3073542599999999  6.0256559500000000 17.7945641899999991
  2.0199145399999998  8.5796542299999992 19.2661788200000004
  1.8447447600000000 10.5918148599999995 -0.0777413300000000
  1.5062321200000000 12.7379614300000004  2.2224743100000000
  2.1145328000000001 14.7772968900000006  4.3137758899999996
  2.4737794000000002 17.2254409200000005  6.2163162600000001
  2.1496192600000001 19.3919523500000004  8.4542236000000006
  2.8664789200000000  0.1466161200000000 10.4491018199999992
  2.2549711299999999  2.1430366200000002 13.2586826700000007
  2.4705492200000001  4.4535859499999999 15.3436117500000009
  4.2272150000000002  6.5120132899999996 19.4688231199999997
  3.7721464500000002  8.3912822600000005 21.1978431000000000
  4.0290673799999999 10.0852269200000002  2.1836373600000001
  4.1307006900000003 12.4617639400000009  4.4774421400000000
  4.2630229499999999 15.0026609000000004  6.0217177800000004
  4.4827382699999996 16.9399531299999992  8.5687187999999992
  4.3912090600000004 19.3825581599999985 10.7915937100000008
  4.3260932299999997 -0.0440753100000000 12.9738082600000002
  4.4448845800000001  1.7789176099999999 14.9464773599999994
  4.4874887899999996  4.0413864500000001 17.4804878099999996
  8.8361936199999995  8.5603664699999999 -0.2259613200000000
  8.3424999399999997 10.0325244700000002  1.8205725699999999
  8.3295295700000000 12.5086046399999997  3.6197387299999999
  8.0349862000000005 15.2554839199999996  5.7439999100000003
  8.4444975499999995 17.7096957900000014  8.2795398500000008
  9.4700568399999998 19.4294530899999991 10.5891547799999994
  8.9686896899999997  0.4007821600000000 12.8592914199999999
  8.4679316500000006  2.3973604700000002 14.9650461200000002
  8.6599582900000005  4.5144741899999996 17.2080619299999995
  8.8658730899999991  6.6818475499999996 19.5437100199999989
 10.6166346699999998  7.7295440800000002  2.4570278200000000
 10.3409263100000004 10.1520370599999996  3.7013780000000001
 10.5305115699999998 12.1497124500000009  5.7850969000000001
 10.1315523100000000 14.8745118900000008  8.0258151200000007
 10.7602787200000005 16.8951213600000010 10.1727048100000008
 11.0043035299999996 19.0582580499999992 12.7590156799999992
 10.2674631900000008  0.1180340400000000 14.9051263899999995
 10.8874779299999993  2.2139347300000001 17.0959693699999988
 10.9170272700000002  4.4796005699999997 18.9402650100000010
 10.8432333500000002  6.4527912399999998 21.3432988399999992
 12.6151849899999995  8.2533253099999992  3.9203303799999998
 12.6330529200000008 11.2232605700000008  5.7192699600000001
 12.4247115400000006 12.6742691999999995  8.5037903700000008
 13.0004558699999997 14.6723024300000002  9.8864518199999996
 12.6686109600000005 16.2088556100000005 12.3565262100000002
 12.2236689199999997 18.8287572200000000 14.4444615400000007
 12.6846204100000008 -0.0659911000000000 16.5358448200000012
 12.9350897699999994  1.7645832299999999 18.7268380699999994
 12.5816222100000008  3.9784852300000000 -0.4194869500000000
 12.9781803000000000  5.9913459700000002  2.5424557000000001
 14.8175358199999998  8.6644701600000005  6.1353401900000000
 14.9237295200000002 10.7358860200000006  8.5194495999999997
 14.7208426699999997 12.9621885100000007 10.5985052599999996
 14.7494738699999992 14.5669952200000008 12.9255276099999996
 14.9485904600000001 16.8643069099999998 14.9100153199999994
 14.7505806199999991 18.7112151100000013 16.8005932700000002
 14.9396501100000005  0.0178680500000000 18.2804074000000014
 14.9098222299999996  1.9961577399999999 -0.3795061000000000
 14.7104219399999998  4.0374366500000001  1.9056577600000000
 14.9012973199999994  5.9664137400000001  4.2985683899999998
 16.6395129799999992  8.0773681400000008  9.0427226100000002
 16.9625250700000016 10.8972324100000009 10.8815901900000007
 16.8676903899999999 12.1470625400000003 12.7880411400000007
 17.0542464199999984 14.9461128399999996 15.0644467700000000
 16.8957000599999994 17.1030730599999998 16.8768713599999991
 17.0744471900000008 19.3389051300000006 19.0160803399999985
 17.0953187600000014  0.2092701300000000 -0.5075080199999999
 17.0586050799999995  2.5329707899999998  2.1318233900000001
 17.1382416999999982  4.0936694700000000  4.5832497900000000
 17.2878483000000003  6.9585686800000000  6.4879619399999999
 19.8034846599999987  8.5319093099999996 10.5115349100000000
 19.1151913899999997 10.3511586700000002 12.9498856399999998
 19.2162544699999991 12.6679236799999995 15.1345563900000002
 19.1409062399999996 15.2652026400000000 16.9704698500000006
 19.0040228300000003 16.9447253400000015 18.9489598800000003
 18.8820799400000006 18.8298588199999983 -0.0937195900000000
 18.7891586500000010 -0.1956436200000000  1.9146593300000001
 18.8065279099999998  2.1613268799999998  4.1930187099999996
 19.2662613699999987  4.3625269199999996  6.3397894299999997
 19.2562694000000008  6.0916897499999996  8.6170940199999997
  0.0109066600000000  8.0605854499999996 12.6287011400000004
  0.0885714400000000 10.3114631699999997 14.4415007299999996
  0.0895369700000000 12.2716984100000008 17.1279048399999994
 -0.1950131200000000 14.6402287399999995 18.8958913700000011
 -0.2490801500000000 16.9687710100000011 -0.4992142300000000
  0.3324325500000000 19.3747665900000001  2.2581704399999998
 -0.7588525200000000  0.3934186800000000  4.2927392700000002
 -0.6782424900000000  1.9771311400000000  6.4867776800000003
  0.0176356500000000  3.8906806299999999  8.5631568100000006
  0.1276947700000000  5.9585844500000000 10.2747024600000003
  2.1937763700000001  7.7765442800000004 14.8528819500000004
  1.9381116000000000 10.3387696699999996 16.6617410899999996
  1.9222950000000001 12.3280559600000004 18.8382730000000009
  2.0718510900000000 14.4786626599999995  0.2627386600000000
  2.0777787900000000 17.2400065299999987  2.1901104000000000
  2.0255632900000000 19.7144385699999987  4.7249336199999998
  2.0200031799999998  0.2711032900000000  6.3799748100000002
  2.0097376100000002  2.2267722800000000  8.2995563299999997
  2.3255995399999998  3.9051508799999999 10.9201219500000004
  2.2188210800000001  5.9492371100000003 12.8648876600000008
  4.2717777600000000  8.7232881199999994 17.0366687500000005
  3.9521425899999998 10.6193016599999996 19.3520768799999985
  3.6179437299999999 12.3888300299999994  0.2573696500000000
  3.3570588899999998 15.1370496100000000  2.1413522999999999
  3.9265251299999999 17.4382056100000007  4.1016786900000000
  4.3830221199999997 19.8390638400000014  6.5119022099999997
  4.2098938600000002  0.3226086100000000  8.3275133599999993