Li                                      
   1.00000000000000     
   -10.8535000000000021   18.7988134399488125    0.0000000000000014
   -18.6059999999999981  -10.7421791085421763    0.0000000000000014
     0.0000000000000001    0.0000000000000001   22.7650000000000006
   Li
   504
Direct
  0.9904330470208507  0.0061631513575833  0.0191412633428527
  0.9092803368843576  0.0367736027961740  0.6792453981989865
  0.8519786286179709  0.0997478084647341  0.3506474517900315
  0.7746315029376518  0.1268137967787908  0.9911802108499899
  0.6947294963937125  0.1583798619203947  0.6750486233252815
  0.6417820071850358  0.1937478337642276  0.3246056292554371
  0.5667571068203969  0.2388067887307770  0.9932200030748959
  0.4963532081331081  0.2930265105625764  0.6629008438392248
  0.4353914072414113  0.3337255310924121  0.3194842973863388
  0.3500329016575137  0.3554206923497887  0.0020311157478616
  0.2889585502651357  0.4143901217186539  0.6730168240720431
  0.2212415002448438  0.4581728193643215  0.3545445583132008
  0.0649666285478503  0.0453995725602496  0.6752656020206445
  0.9867794650584969  0.0871931132961237  0.3332962789369631
  0.9233799826830946  0.1354086218396802  0.0028380456841646
  0.8432807856686182  0.1831857649546222  0.6690286430924672
  0.7885515328960722  0.2105201562782142  0.3403543061717542
  0.7029986699675206  0.2509278590512452  0.0054746628596547
  0.6371564345445648  0.2806092055073961  0.6598603101251896
  0.5831811054486806  0.3199025224128107  0.3238659560729218
  0.5038243792560664  0.3787190691037452  0.9911795053810692
  0.4443193853237162  0.4134782587009056  0.6543720491983294
  0.3689120881529604  0.4468071982818387  0.3431215040632551
  0.2862854887665449  0.4903956469779800  0.9932236604436611
  0.1353472009420358  0.0892622586571861  0.3435744265319585
  0.0694343026181414  0.1317307323731072  0.0169705934548645
  0.0013445748621095  0.1567632772618524  0.6673676046562704
  0.9369966464473478  0.2144957216910512  0.3499133850208622
  0.8581338144236099  0.2569640457461801  0.9992181098177042
  0.8040932086033052  0.2875993711933802  0.6660781691192597
  0.7237255559642861  0.3273589029528949  0.3328036411157456
  0.6465203986252135  0.3648332400043657  0.9994438642653165
  0.5897538183297186  0.4125372730709671  0.6554394293872150
  0.5218015572768238  0.4453842055302601  0.3340989663957856
  0.4213848812079490  0.5007231609055935  0.9910424634307020
  0.3716209855937294  0.5419470220820415  0.6685416015813743
  0.2152646934041726  0.1113019015445431  0.0079897302877256
  0.1282417062593950  0.1561611367899403  0.6710567520316246
  0.0725836386307819  0.2087297408427844  0.3471323259389436
  0.9974390273590430  0.2555662166268249  0.0152651056446302
  0.9469452882727509  0.2884382303413773  0.6842586685701733
  0.8654148124408465  0.3326913674714191  0.3357148034263133
  0.7860270146027872  0.3732768524674057  0.0112451653854606
  0.7096168926953226  0.3936040543443653  0.6592555365692974
  0.6442593070049654  0.4367712641847561  0.3280230032945326
  0.5668231653778193  0.4939216341272612  0.9833224968152834
  0.5178632280869309  0.5257910052648853  0.6680537772896997
  0.4452861073579655  0.5712424692997047  0.3223598427410508
  0.2737627539971541  0.1643444259643090  0.6678166250823665
  0.2132503817672529  0.2138487907927100  0.3345387625741267
  0.1531159144613170  0.2544004128987467  0.9966746628596539
  0.0700662759820432  0.3002471973357430  0.6651116652756457
  0.9933873248732183  0.3427673395403943  0.3443482442345740
  0.8988478855412865  0.3814182653056903  0.0066367441247550
  0.8559323446821523  0.4180541517248315  0.6730185596310108
  0.7900339787366164  0.4635049888090990  0.3306251249725420
  0.6944281391236302  0.4783270370859753  0.9849111653854621
  0.6706717321759044  0.5471611563382126  0.6503178589940717
  0.5754880350292311  0.5741730904982418  0.3199448737096446
  0.5015667595283873  0.6240214487508666  0.9976223070502996
  0.3530148875095165  0.1963052589710585  0.3361757702613630
  0.2911245592260201  0.2522354523508739  0.9963069259828714
  0.2197905426640148  0.2798398041059897  0.6841095695146038
  0.1303174464212589  0.3400393687663552  0.3338119152207355
  0.0675599600928081  0.3852349168619114  0.0081517500549069
  0.9891414544206185  0.4236884808366028  0.6614273169338887
  0.9316454155539446  0.4802578664025177  0.3436516898748110
  0.8315245553653554  0.4898298402849690  0.9935759200527130
  0.7875645123219499  0.5401483572779568  0.6617328170437062
  0.7213120908600743  0.5797992078818766  0.3199215260267962
  0.6523517431232904  0.6243792957116696  0.0036404704590396
  0.5781399661724151  0.6679183584407014  0.6506732352295188
  0.4420306985352198  0.2525413707109507  0.0062091407862965
  0.3613333475775349  0.2874430550396241  0.6656991627498385
  0.2979052539554843  0.3263930778347941  0.3290932106303543
  0.2108643741174987  0.3864214148938885  0.0104715154842978
  0.1322873167789780  0.4178126936117081  0.6706654192839920
  0.0724941158074373  0.4739001125488542  0.3480980140566672
  0.9908470696172955  0.4998378033918485  0.0181521774654101
  0.9189881261397659  0.5474015921177084  0.6792817157917881
  0.8726592345982880  0.5891420561801297  0.3375993753569091
  0.7804979829168772  0.6119666479851489  0.0006124788051807
  0.7131038122193090  0.6733720538577757  0.6589248491104769
  0.6548749927647108  0.7065905705701496  0.3233211557215014
  0.1374233534539044  0.5056761266950502  0.0221034983527346
  0.0812981471700667  0.5465483150429762  0.6611076033384577
  0.0170585178176808  0.5918849853200996  0.3461917663079319
  0.9389989609205074  0.6199223276173953  0.0022393358225372
  0.8582750488344928  0.6861249955645974  0.6805102042609263
  0.7920329760874409  0.7012047685711593  0.3147439130243797
  0.7262740614049363  0.7505277230216905  0.9959268925982840
  0.2124097279851469  0.5425707168286138  0.6663215365692920
  0.1707871020311842  0.5909546177633302  0.3147223848012288
  0.0666129752149658  0.6285421575569359  0.0105943017790437
  0.9971019292887959  0.6642879426240995  0.6732060351416678
  0.9414538221651085  0.7172918704251856  0.3363576802108525
  0.8690001639967520  0.7485297909309523  0.0085313630573225
  0.7766781484271590  0.8097223307559815  0.6725070309685890
  0.3030419591666771  0.5666784293337912  0.3259825275642427
  0.2131899214602129  0.6312957308089651  0.0094329277399510
  0.1394349571008817  0.6733660482159323  0.6654247533494413
  0.0771516378190498  0.7312099795190221  0.3396909338897416
  0.0028190406572648  0.7491189886179939  0.9952330204260917
  0.9188931822613284  0.8048040334476312  0.6542330876345233
  0.8441405572663854  0.8437975788299141  0.3302489589281805
  0.3616708418195955  0.6288087997587368  0.9852695414012729
  0.2964888098720380  0.6603174143853536  0.6580597509334538
  0.2253091357512744  0.7078843735958031  0.3228151390292098
  0.1334629867689401  0.7517528648341028  0.9897504849549748
  0.0567941265060057  0.7929340260113449  0.6612210889523382
  0.0006457852638420  0.8425763371836439  0.3378275576542933
  0.9294884512600419  0.8881558800520892  0.9884708860092246
  0.4332243664943221  0.6553812855129451  0.6666269251043246
  0.3706932452218510  0.7027341439849835  0.3220075677575238
  0.2783470625287379  0.7634265186952760  0.9795696292554368
  0.2161714118278582  0.7911426030165742  0.6670943751372747
  0.1548040120168039  0.8416990919905203  0.3483014403689850
  0.0682366083760613  0.8755110518644784  0.0067086742806950
  0.9989321393187538  0.9228428139258256  0.6626593195695136
  0.9160939478423913  0.9700516267382895  0.3552630072479701
  0.8522490212434803  0.0128504545809918  0.9934913248407611
  0.7613543485997809  0.0429618745282312  0.6896143773336263
  0.7085562982666076  0.0770258710503811  0.3293939789150002
  0.6480954358212685  0.1186000127546976  0.9998613156160800
  0.5528452136254458  0.1720277890957860  0.6663936674719935
  0.4949612350480521  0.2219447100615923  0.3218795137272110
  0.0830824596740243  0.9648609574292166  0.3326615985064763
  0.1344937633100116  0.9973234327590461  0.9992399771579201
  0.2028642437053634  0.0330002327713572  0.6654090647924420
  0.2897111502620646  0.0829200161577290  0.3327998835932320
  0.3462992498569690  0.1185592540942366  0.0023193604217013
  0.4165529802036758  0.1582568122841792  0.6616425411816351
  0.8562758816030112  0.9187805110728675  0.6801488144080849
  0.7947637994440626  0.9527940859257171  0.3418165341533026
  0.6993105534847572  0.0123182671048667  0.9972451570393162
  0.6125787088490000  0.0438128567939060  0.6626627050296534
  0.5712672700281303  0.0814005189051770  0.3296102666373812
  0.4985174252020883  0.1100941774464772  0.0064283307709232
  0.1485295624000216  0.9285201012840716  0.6697104383922721
  0.2042276509754188  0.9581565468202911  0.3368577215023052
  0.2783105231140155  0.9874177951941334  0.0034341383703023
  0.3410154251222153  0.0405897604770544  0.6658543009005058
  0.4465332619504991  0.0698695942932517  0.3192020549088497
  0.8054306097735093  0.8901612182534251  0.0028111038875451
  0.7142722415315674  0.9150301986744651  0.6781766277179884
  0.6332508189810397  0.9611105979893182  0.3282898379090682
  0.5697185916903820  0.9996824376592741  0.0010700390951044
  0.4911762398983015  0.0287154111718735  0.6731631522073371
  0.2154276811613585  0.8699561293408138  0.9967886488029905
  0.2926733571450555  0.9035579365917528  0.6724395646826267
  0.3634110348995421  0.9526529620938291  0.3393421471557190
  0.4178575832400142  0.9890105836990486  0.0003521862508222
  0.7189717133397480  0.8422818020674541  0.3211004133538324
  0.6501806624814108  0.8799545753927731  0.0022157465407417
  0.5681659644209560  0.9250688205502087  0.6669394285086767
  0.5056194933344784  0.9333913022194054  0.3248664708983071
  0.3020802244864456  0.8313077192054408  0.3274492690533748
  0.3538682910259539  0.8671738779613989  0.9928724137931013
  0.4356780236297837  0.8964032677917970  0.6648551047660902
  0.6342008092723930  0.8026345865076863  0.6655267463211061
  0.5847731642751341  0.8356916189153978  0.3130335172413794
  0.4947453871852119  0.8651685370410220  0.0038633538326351
  0.3605630391313497  0.7889074833273071  0.6569748996266185
  0.4374263218550141  0.8261254442516730  0.3176168214364168
  0.5839221849465375  0.7634500416899286  0.9902199973643775
  0.5055291703246638  0.7854645017672368  0.6561283531737345
  0.4254463102916120  0.7442543766123819  0.9943493533933676
  0.5018012197132293  0.6910128464926615  0.3235385473314309
  0.9843995305568143  0.0046696396378394  0.7928929097298507
  0.9203138536826998  0.0478045447197033  0.4492553569075355
  0.8579074305668968  0.0924435978900462  0.1117543812870636
  0.7763303924171154  0.1433751196334967  0.7830214847353361
  0.7077157969687562  0.1680510441577781  0.4480278581155304
  0.6595877573705664  0.1929841419638052  0.1257145842301810
  0.5638161572114271  0.2523231214503809  0.7752959446518801
  0.5059467443147341  0.2839591293442965  0.4320758414232344
  0.4179573484609023  0.3433579930387793  0.1084671548429625
  0.3634995546626172  0.3763059015086156  0.7759489369646388
  0.3023303996229600  0.4225344554279360  0.4534300834614555
  0.2049774505340238  0.4633094190384313  0.1276506053151749
  0.0705704041104980  0.0522471395779149  0.4449996376015832
  0.0083279656459538  0.0919354716146188  0.1209786422139274
  0.9226803552976008  0.1367411713306197  0.7861651399077516
  0.8526778450295822  0.1741317096082682  0.4606515598506462
  0.7940500732760754  0.2028510405083352  0.1048658058423015
  0.7066326287093432  0.2416238420027454  0.7628911939380600
  0.6400110153175191  0.2746878074412180  0.4372646966835063
  0.5569331181241424  0.3347884791163906  0.0932619090709395
  0.5073186638058047  0.3860703758133752  0.7709737355589752
  0.4308621246989404  0.4062559846060481  0.4321507463211063
  0.3474869881388187  0.4686670350551054  0.1021371355150436
  0.2807593472554331  0.5028623081029338  0.7742004779266409
  0.1468718457798062  0.0964412432456712  0.1137529431144273
  0.0711975930752757  0.1072352022765486  0.7988523755765442
  0.0028769512333540  0.1691991588621278  0.4521772923347243
  0.9277792882742091  0.2105801561171603  0.1316744221392483
  0.8536182716717420  0.2538879849731686  0.7846768280254750
  0.7812655479046668  0.2940220759871366  0.4457428341752703
  0.7025467646065593  0.3275344206354234  0.1266607524708974
  0.6367591125510472  0.3605095599229955  0.7629324550845595
  0.5714084455847228  0.4175830826532447  0.4476320057105170
  0.4908829119620677  0.4597103420950077  0.1129612532396251
  0.4298460783556806  0.4856225791984627  0.7843556402372087
  0.3735381796369950  0.5397336185805557  0.4344583399956079
  0.1978414632333809  0.1242822089001692  0.7800618264880299
  0.1441110358681357  0.1696641928520464  0.4535549426751615
  0.0654478821951372  0.2310215248089378  0.1229952756424311
  0.0023867776320259  0.2389191803166071  0.7843984489347662
  0.9279707427879558  0.2954028739735008  0.4387476608829317
  0.8414875339460721  0.3353104659957182  0.1226831139907745
  0.7936828696617297  0.3691585689630443  0.7717213072699352
  0.7302805524741345  0.4088599045319796  0.4467830362398431
  0.6369811434287271  0.4498544700524718  0.1142106145398643
  0.5835439247174392  0.5022018968654862  0.7690022433560273
  0.5210478899310047  0.5461851572951630  0.4396769150011011
  0.4416109340505372  0.5740835374224673  0.1055190836810880
  0.2706090069710925  0.1550262642609539  0.4513046848231923
  0.2150981028420489  0.2177861319361369  0.1012645789589257
  0.1362552053839750  0.2611803283008172  0.7859307450032915
  0.0765874975439687  0.2995414836830363  0.4481267498352750
  0.0014700936695462  0.3525552896032238  0.1287946097078816
  0.9268478903612873  0.3647003795530352  0.7952039490445841
  0.8651601903466641  0.4049118824074256  0.4275403224247754
  0.7794750247692335  0.4664494699917867  0.1197191609927515
  0.7183015996959980  0.4800479720358766  0.7665083110037330
  0.6394548850960788  0.5253977224878952  0.4281487739951686
  0.5705567178771389  0.5663693283091717  0.0931543000219648
  0.5121453404207514  0.6249674168409882  0.7765974223588827
  0.3545782101190440  0.1963272340359552  0.1034503110037335
  0.2839067153814909  0.2426629197359418  0.7742210046123432
  0.2168647253805176  0.3054730088725393  0.4559310863167170
  0.1325668221444900  0.3425057291118350  0.1113587555457940
  0.0668422181071833  0.3660950239586001  0.7852959490445883
  0.0090261098982438  0.4262770625722538  0.4517350871952530
  0.9215946304739830  0.4628224259997111  0.1232653353832660
  0.8577940401210569  0.5016568980729943  0.7761942618054007
  0.7933444860208425  0.5426639611401001  0.4321967384142340
  0.7110287693325219  0.5772545572422558  0.0904718357127194
  0.6512570488856895  0.6180863022637411  0.7656121093784307
  0.5805912441780166  0.6779333355537958  0.4289335598506483
  0.4347402651768277  0.2514767146029939  0.7713781568196794
  0.3557723568546507  0.2932485356808598  0.4327140210849976
  0.2653842745782953  0.3352666578450183  0.1022338831539642
  0.2049348710248253  0.3781483734995206  0.7795115879639809
  0.1493474404007600  0.4135009940669860  0.4546018159455301
  0.0678937948821527  0.4520738636593862  0.1199505130683036
  0.0099996854137459  0.4880202673525673  0.7755992286404592
  0.9287678462001665  0.5607802978214806  0.4514251614320202
  0.8718078121535413  0.5751376954096301  0.1158044853942428
  0.7758802204242627  0.6192651535862197  0.7739963167142534
  0.7116259435552124  0.6609727868227182  0.4312106835053839
  0.6479651721222979  0.7112835039433847  0.1103617465407396
  0.1495800077928777  0.5018067131796187  0.7799014820997172
  0.0849658603580608  0.5614152404925150  0.4453356709861609
  0.0183931491253446  0.5887978021051339  0.1224506729628843
  0.9157376912180268  0.6187298284620653  0.7867127599385029
  0.8549311693606612  0.6690544035979826  0.4471356903140773
  0.7872291718014566  0.6954362089569415  0.1096467050296539
  0.7116929812690671  0.7624502197031120  0.7826936617614777
  0.2299081551524296  0.5308227957676621  0.4394411785635839
  0.1342205733214570  0.6091171652937533  0.1252013033164943
  0.0699514584281928  0.6098527859803085  0.7756522798155032
  0.0059821506294426  0.6777181128745227  0.4442858146277189
  0.9384919129703277  0.7044468576038128  0.1240411438611915
  0.8416980123952271  0.7454733119675581  0.7807140856578059
  0.7740135005415922  0.7844745411088851  0.4203441704370761
  0.2687904357321997  0.5814356968601828  0.1034476112453362
  0.2056295401833879  0.6207296197796168  0.7736395093345081
  0.1531497150895831  0.6594033557602472  0.4363490828025505
  0.0758042453063439  0.7423803731896967  0.1156801541840551
  0.9844084070779004  0.7501962890347187  0.7714567129365264
  0.9260159965371813  0.8217532748351957  0.4336967019547515
  0.8663078382798020  0.8246285696673183  0.1089379652976064
  0.3458707068644813  0.6264213438163182  0.7759945684164293
  0.2834969662722244  0.6590215288919907  0.4297958748078159
  0.2085975510919269  0.7250284423962015  0.0980429589281826
  0.1218210132701785  0.7472433340036631  0.7741737048100177
  0.0764757551958724  0.8062544142202270  0.4599927902481866
  0.9990787649552715  0.8457406306867625  0.1187505271249734
  0.9233824748893014  0.8694807389438353  0.7857554175269073
  0.4292726167349059  0.6677901722169040  0.4328446496815275
  0.3555130455424873  0.6966997732024396  0.0954276990994956
  0.2729228469371705  0.7433169967089839  0.7675637707006402
  0.1944912661806626  0.7809288612548713  0.4298400017570856
  0.1365057574381225  0.8598281926069689  0.1006417491763685
  0.0581457345855725  0.8695313318110038  0.7803483017790498
  0.9923880736623687  0.9425386371334739  0.4478568196793304
  0.9238383294490333  0.9718313759714547  0.1160203153964403
  0.8464141125056699  0.0038100532043259  0.7852935967493977
  0.7784106681683198  0.0534409606059967  0.4618507906874569
  0.7265974506076560  0.0821022514151224  0.1054380619371855
  0.6377876486234939  0.1108124812245990  0.7577462569734266
  0.5628938788678681  0.1634513321352031  0.4338969839666120
  0.4976435351043520  0.2237467409300677  0.1149002982648781
  0.0754008374674271  0.9697743131542111  0.1162422969470711
  0.1325197262486668  0.9971348877329973  0.7788075211948140
  0.1940949265370122  0.0621809687644017  0.4458514522292987
  0.2961216660600812  0.0709338271211948  0.1129149189545373
  0.3578672653237120  0.1253888297220840  0.7774618084779235
  0.4275141519317387  0.1852297066542477  0.4418317285306372
  0.8438160011665587  0.9205671552906978  0.4559350050516144
  0.7879381641585326  0.9637806506129891  0.1123911227761880
  0.7155403543071586  0.9891676735745065  0.7721791210191071
  0.6312375782045123  0.0387452410489786  0.4418556810893932
  0.5839314938875688  0.0945315103241526  0.1093663571271719
  0.4962404200359032  0.1158431678566245  0.7869468363716265
  0.1364981405809047  0.9265823003979961  0.4526043940259186
  0.2272168430128829  0.9610601292249683  0.1081456485833527
  0.2723720789348647  0.9920889745931660  0.7890846619811143
  0.3544366270298553  0.0503236971155232  0.4497063698660213
  0.4408590898465192  0.0892474351473069  0.1043093687678436
  0.7794912394021267  0.8732038865499874  0.7852233121019125
  0.6995086763401517  0.9238797329540063  0.4534176762574091
  0.6540976114592567  0.9566246127070244  0.1033280039534361
  0.5596671545322423  0.9834328489887270  0.7907884827586216
  0.4882017049134362  0.0398948320822328  0.4364855023061693
  0.2029209676927906  0.8583447354157911  0.7765582754228006
  0.2726795537408933  0.9271956145046332  0.4369357188666783
  0.3840136458382730  0.9487615932975544  0.1172723821656021
  0.4159828585690022  0.9930326810986401  0.7723156393586663
  0.7303978279059038  0.8320445622284893  0.1056373670107646
  0.6486016186192032  0.8668174633084220  0.7728109035800586
  0.5648050791236869  0.9148180255686924  0.4450265394245534
  0.5098186216861436  0.9675334913215892  0.1003737720184503
  0.3013341711387838  0.8318766319222419  0.1202791579178566
  0.3576889357702342  0.8643430396440834  0.7765092690533706
  0.4209375850201340  0.9028831974085776  0.4403964230177877
  0.6347404529307852  0.8058560074231806  0.4273414904458619
  0.5982521185267160  0.8362206332134932  0.1054463869975848
  0.4976047127268757  0.8611979904557074  0.7795204045684159
  0.3376774206470046  0.7764190290770543  0.4385602736657148
  0.4429537809914663  0.8167376425889046  0.1202181998682192
  0.5694213595101516  0.7440006580971996  0.7727699459696922
  0.5013607071664552  0.8003222468434288  0.4242744814408113
  0.4122020116938430  0.7510588313490771  0.7629272585108708
  0.5159857155552174  0.7020561897356501  0.0993177926641806
  0.0157074256991052  0.9983542338586915  0.2392669857236953
  0.9133870559740132  0.0405685465971217  0.8965939547551045
  0.8534104069257538  0.0939966488461437  0.5766118032066743
  0.7992278341572501  0.1231511201749100  0.2279806668130888
  0.7114832714919501  0.1608478427852376  0.8883680812650994
  0.6217289791686085  0.2008449577874600  0.5569516828464742
  0.5901409396766795  0.2680613485552570  0.2179717135954320
  0.4954534500846179  0.2897301483127279  0.8904780390951004
  0.4278455303278932  0.3215987744053663  0.5379965038436225
  0.3576195832642526  0.3753867802344075  0.2176160944432226
  0.2831537653356051  0.4142185756170065  0.8982460491983275
  0.2091549134416937  0.4549106990734444  0.5689226958049645
  0.0558558878166338  0.0321190729647469  0.9053510305293244
  0.0001908276894937  0.0776858089687238  0.5670914623325274
  0.9404034785181281  0.1384071216759892  0.2392811680210869
  0.8509151669055512  0.1628320453612062  0.8959243417526892
  0.7639108812156223  0.1948831758962797  0.5618612541181633
  0.7234934033673426  0.2507012327503233  0.2280399727652096
  0.6358872376708717  0.2839273613855298  0.8793869431144330
  0.5849889590222546  0.3372510659600110  0.5507158827146910
  0.4987051047292681  0.3763356619273779  0.2186130753349431
  0.4199223844289577  0.4131995630764393  0.8936489273006814
  0.3666358864921762  0.4463143494548660  0.5423610832418220
  0.2861517275358594  0.5038288560243771  0.2421377957390760
  0.1246790040342560  0.0796952590408608  0.5631420672084317
  0.0841013110607278  0.1340484553586165  0.2421332400614986
  0.9966438759613894  0.1564479416453324  0.9031134777070093
  0.9221434114043063  0.2207128090037287  0.5629874276301337
  0.8572976880108243  0.2473446395342620  0.2325756740610601
  0.7896674949874125  0.2874099990945993  0.8755743404348806
  0.7124167572549140  0.3257437700276142  0.5497420008785383
  0.6393849794157873  0.3831148347796827  0.2171797553261570
  0.5811275677041436  0.4169844111535568  0.8858162727871743
  0.5049700597436768  0.4590780665684164  0.5547508723918284
  0.4304027683969807  0.4873471699023639  0.2197894065451322
  0.3470216243621493  0.5245855686329932  0.8747178664616726
  0.2188484643090973  0.1343611922294556  0.2234881177245782
  0.1334228600273448  0.1633446237070402  0.8964917623544935
  0.0808457574915877  0.2253727142354691  0.5465202415989481
  0.0258610897173170  0.2508037376519994  0.2328992958488882
  0.9218748118411071  0.2928422428078292  0.8861775800571081
  0.8676362794835484  0.3382389471474383  0.5598482486272758
  0.7895165635742103  0.3789145037755191  0.2239078418625056
  0.7081513418456851  0.4150512319293682  0.8763511078409820
  0.6532560937812661  0.4700984459929600  0.5557576556116857
  0.5616770945673792  0.5156813024891420  0.2281971873490036
  0.5044391481448542  0.5372688259491412  0.8893571262903563
  0.4363064334825069  0.5752957666450413  0.5440728284647491
  0.2843231908817287  0.1575128570227449  0.8942725323962222
  0.2176934558596741  0.1986305899616809  0.5748687023940278
  0.1523088612319512  0.2570373263796100  0.2134636292554362
  0.0612236734986098  0.2885535816232832  0.9035007151328784
  0.9953942321129503  0.3291165463701020  0.5542300092246890
  0.9208647578368385  0.3675246377952206  0.2264642530199836
  0.8326248931581119  0.4135262889448796  0.8922936301339774
  0.7838607346041826  0.4541488410713441  0.5603848947946375
  0.7188025478721585  0.4970361333263185  0.2257108073797482
  0.6420252644206244  0.5472582937015389  0.8844299986821866
  0.5773483332917451  0.5878444386014223  0.5587978743685511
  0.4948551436477047  0.6225013451800265  0.2077110700636950
  0.3597815320148143  0.1938350839663130  0.5552429615638061
  0.3011719212611936  0.2549347281840042  0.2387557008565793
  0.2026509138705350  0.2960635911161020  0.8981228056226698
  0.1637428139596793  0.3356266913193906  0.5660723413134221
  0.0715070428613629  0.3689699322962596  0.2210972312760831
  0.9913470280940189  0.4061494824562857  0.9024880202064551
  0.9272067612311261  0.4678139587755510  0.5689902126070692
  0.8754217582146424  0.4950964762559025  0.2360919929716658
  0.7756004610805576  0.5302426532119853  0.8828396784537631
  0.7335218442175275  0.5893475708795606  0.5433125060399746
  0.6590109264145170  0.6213726249682878  0.2123464603558105
  0.5724090133062418  0.6597125714329053  0.8840461418844683
  0.4365966347254044  0.2582654028274618  0.2204973507577392
  0.3569918619628822  0.2788720195735692  0.8902604542060146
  0.2894161655782881  0.3271925377241800  0.5683167406105838
  0.2137944554384319  0.3802462946307088  0.2267848403250596
  0.1327675496634129  0.4304768902358447  0.8873762108499861
  0.0628067836780062  0.4576207843357381  0.5514414412475261
  0.0136050273072854  0.4843271125508082  0.2388172637821242
  0.9185140385577384  0.5434169290827455  0.8936410226224467
  0.8402593123493958  0.6029137215637874  0.5729180786294776
  0.7945053398973130  0.6236539564347225  0.2151853648144098
  0.7157535790031844  0.6831406352944711  0.8863028710740153
  0.6422380430215640  0.7125352665841902  0.5473856248627271
  0.1496935467864091  0.4918674298588428  0.2369893345047203
  0.0584176858161456  0.5479270051055849  0.8934338242916766
  0.9964442443924142  0.5906125004561389  0.5521439323522941
  0.9352950823642558  0.6318777992883753  0.2240136999780376
  0.8472014797118206  0.6657563554739170  0.9039079196134381
  0.7810161132663183  0.7220891988962705  0.5648859815506242
  0.7289963472452143  0.7568830670307420  0.2058522464309220
  0.2105034959903165  0.5302771711420533  0.8937700847792698
  0.1501271314929156  0.5985058759723572  0.5450056380408554
  0.0666916183018884  0.6444686381146099  0.2262205284427878
  0.9896989718133185  0.6632439266593622  0.8885664265319591
  0.9261139775213323  0.7083047648593066  0.5554523830441482
  0.8682380571090604  0.7374267852932803  0.2230593336261819
  0.7785459383026350  0.7898349639166042  0.9018427779486018
  0.2927895483109069  0.5637642162424825  0.5484010467823381
  0.2274849883424608  0.6245783977762613  0.2049562921150923
  0.1342181491419296  0.6711312484299725  0.8903073516362809
  0.0837269288022782  0.7191763166851786  0.5511822864045683
  0.0009289247627322  0.7705023086685827  0.2203472202943146
  0.9288923194936061  0.7810803520571952  0.8968612106303553
  0.8545622301934515  0.8340942408145438  0.5483610463430679
  0.3702418958745284  0.6088472424554325  0.2032226277179916
  0.2690537395688395  0.6646418788342245  0.8742013999560712
  0.2325613156963300  0.7119971767220221  0.5461633077092003
  0.1489698040622827  0.7614181705691720  0.2245864629914323
  0.0620396010802438  0.8016028442263590  0.8726449598067205
  0.9930653672399714  0.8437714332291151  0.5636279639797905
  0.9140791755004187  0.8868569955232815  0.2333351113551529
  0.4124235156427858  0.6521675563243576  0.8771724142323762
  0.3726772872252226  0.7056193654251857  0.5360707471996520
  0.2960728631225251  0.7524995651993791  0.2165489092905801
  0.1986399943900565  0.7908368451514320  0.8807132211728543
  0.1459905267796202  0.8342722222722472  0.5559968253898546
  0.0999399666238361  0.8825483528027647  0.2281736674719994
  0.0027122998716820  0.9112021462615658  0.9021757707006373
  0.9193082287236436  0.9563386778215559  0.5471591956951443
  0.8768097848279197  0.0206220837563222  0.2272815901603309
  0.7803605512801042  0.0442675172891214  0.8818643241818549
  0.7011361838264776  0.0801092689906113  0.5551617636723023
  0.6519396864439457  0.1233065550457226  0.2249494706786734
  0.5711318718205689  0.1548571626999617  0.8852484155501870
  0.5095703328541248  0.2045135618815337  0.5472469817702645
  0.0772745980059781  0.9516973621703855  0.5672721528662450
  0.1533632204601503  0.0136982579133473  0.2398377707006389
  0.2044056706489243  0.0415397336134475  0.8895355993850202
  0.2782936901757083  0.0751595132579794  0.5591204564023755
  0.3725747892114342  0.1288332293504055  0.2229455286624216
  0.4322996483798391  0.1657100707464991  0.8837041177245766
  0.8498880390961077  0.9152574791825430  0.8939128495497499
  0.7679978818893005  0.9597831612874614  0.5704512949703471
  0.7151925612620005  0.9984430601065739  0.2281625772018430
  0.6383432389657173  0.0401514493112742  0.8903748025477682
  0.5637716874290462  0.0798798452374925  0.5517771908631701
  0.5172496238203834  0.1448765827080223  0.2099940509554159
  0.1408784862627854  0.9250186987717299  0.8913252079947256
  0.2047040870042878  0.9649493019294297  0.5557436362837720
  0.3031429910004277  0.0055277726097387  0.2175660166922881
  0.3644606291005772  0.0542353666589719  0.8964109303755734
  0.4236314011334130  0.0957102229280054  0.5504535963101276
  0.8004683248203079  0.8952417089413487  0.2096060250384326
  0.7192069553538545  0.9119865280053219  0.8864503149571732
  0.6375772890833886  0.9586478718119693  0.5579354500329430
  0.5732077086972751  0.0060060288968131  0.2215955774214819
  0.4893866667887394  0.0269411518869376  0.8869727471996498
  0.2297465260467320  0.8692888879690344  0.2157358866681278
  0.2883980564344952  0.9176430954793204  0.8877816881177267
  0.3636002196302570  0.9584124479330853  0.5477145499670542