Li                                      
   1.00000000000000     
   -11.0705700000000018   19.1747897087477881    0.0000000000000013
   -18.9781199999999970  -10.9570226907130195    0.0000000000000076
     0.0000000000000001    0.0000000000000001   23.2203000000000017
   Li
   504
Direct
  0.0005550578641476  0.9955683725817366  0.9966257907951217
  0.9314212746710950  0.0469262624150559  0.6635011222938516
  0.8576474922425490  0.0776398016138842  0.3367204639905594
  0.7607520208820375  0.1218441394713494  0.0111479636352669
  0.7157676142584393  0.1780196179926676  0.6652032962537078
  0.6369661348723454  0.2195900050303337  0.3358657993221428
  0.5668609959131459  0.2426766536661091  0.9876647933058607
  0.5114787030120453  0.2862172288296136  0.6647084770653251
  0.4034210326390095  0.3275186751215386  0.3286240151936042
  0.3587989422156355  0.3751701872617446  0.9989604044736708
  0.2966042011962173  0.4267666095673945  0.6746895173619620
  0.2129845816905060  0.4506089933815645  0.3390674039525763
  0.0650699943280202  0.0358795741038662  0.6482433202844078
  0.9843011132676054  0.0679491901459670  0.3275348501096005
  0.9170162902828096  0.1072628330563745  0.9957575384469592
  0.8610839474984004  0.1621193744871832  0.6685137638187300
  0.7774270542594266  0.2162908215317003  0.3378855992385965
  0.7033856500196265  0.2606577118525024  0.0026545445149253
  0.6435120064399911  0.2981376794364010  0.6608046291391574
  0.5640789544164519  0.3445680625692020  0.3330806509821116
  0.4967762394108348  0.3739569934885836  0.0073759684414085
  0.4314382824286227  0.4081704833615873  0.6705141229872140
  0.3593244179219610  0.4484745053085177  0.3496783624673228
  0.3015540496375237  0.4990357145335977  0.0103197973325067
  0.1272630497772127  0.0686749556345916  0.3314281693173626
  0.0732937813338879  0.1345679721267672  0.9801506009827605
  0.0126785497984798  0.1527602500646807  0.6609049396433306
  0.8958669571008571  0.1933601316003859  0.3231252442905586
  0.8393545305013745  0.2409996235279053  0.0176278368496554
  0.7900549111005688  0.2898827572392477  0.6668487457095722
  0.7102826758725556  0.3440169551549630  0.3436772948669926
  0.6449636520101691  0.3817027157044990  0.0185227684396807
  0.5558227632309993  0.4314007047093114  0.6711662855346390
  0.4987802149161737  0.4542708190355782  0.3399681929174037
  0.4427483380339154  0.4927401081567524  0.9942131557301153
  0.3814848064088778  0.5373375437985430  0.6711695064232615
  0.2227492508661228  0.1251632867659751  0.0020780579923567
  0.1466031259898770  0.1518634786538513  0.6527345869777719
  0.0346844856313737  0.1964115525617842  0.3296153085877478
  0.9740080608374342  0.2491917293143331  0.0100845970982277
  0.9344133401219352  0.2819308698251604  0.6702236099447489
  0.8440074272909115  0.3338806539138801  0.3327886745649309
  0.7831790709533522  0.3862319098243674  0.0041442147603590
  0.7137488519846471  0.4185677944751305  0.6796392613359856
  0.6503191854265253  0.4688618796483865  0.3440032208886166
  0.5778731917170887  0.5062134747789884  0.9962310547236655
  0.4838493851394716  0.5511292621374793  0.6657704512861571
  0.4237005574676616  0.5893047756845888  0.3446325779597998
  0.3022602077705159  0.1814308409717071  0.6693028096105564
  0.1922100074062172  0.2133206243984631  0.3257991692613800
  0.1525885047142452  0.2437408140198087  0.9910700688621574
  0.0632612109899853  0.2906150390792419  0.6617022794709797
  0.9813218949467313  0.3239741380842602  0.3343605358242598
  0.9338626655503077  0.3759686618399911  0.9897956589708130
  0.8479859959496920  0.4208304991653122  0.6711650323208573
  0.7920334460707679  0.4772818162669594  0.3301804296240789
  0.7219860126703210  0.5051731160785309  0.0081917494606003
  0.6442163833124397  0.5497789387669982  0.6668576891771423
  0.5693415217401920  0.5742116147262593  0.3384294974655759
  0.4943871204763681  0.6208429088691574  0.0023085171164894
  0.3382566376404270  0.2049340379888562  0.3279746911107964
  0.2981327755805836  0.2431560965280468  0.9953865079262556
  0.2180250607681700  0.3043762302594644  0.6629912339633819
  0.1330222419749632  0.3256789291383555  0.3440987510927940
  0.0874580749928242  0.3636460860573507  0.9872547663036215
  0.9947805560281253  0.4242209439002238  0.6721414706097661
  0.9354711878215909  0.4478069968067402  0.3376676317704792
  0.8612811981104045  0.5222507359335324  0.0009984754718957
  0.7824194564483449  0.5321157495066231  0.6635059163748949
  0.7060284213511352  0.5897390094194179  0.3318423465674414
  0.6391587131575349  0.6288164567870567  0.0087067204127393
  0.5788409670591363  0.6678308765728218  0.6672648682402880
  0.4244514472010721  0.2528907021432687  0.9997352471759626
  0.3734959795754520  0.2839152325621015  0.6866196056898488
  0.2755633603849077  0.3287541605503463  0.3325323320542779
  0.2229411695559804  0.3732840853861532  0.9811596469468498
  0.1412611760444520  0.4187959288020906  0.6672285849020057
  0.0629263346468960  0.4630132424838820  0.3448717897701599
  0.0083812704521051  0.5025458769768036  0.0051428823055701
  0.9317928179354666  0.5546558501868546  0.6734914230220994
  0.8406884786642550  0.5973212024559800  0.3358019418353777
  0.7830789510703795  0.6296580080982110  0.0078893498361339
  0.7202852134428710  0.6501075857153253  0.6843182831401862
  0.6472690278556712  0.7102828508983947  0.3344131053431667
  0.1494162556246792  0.4929558487863446  0.0112098314836615
  0.0807723064277752  0.5466320951511463  0.6674576443887474
  0.9749926137432112  0.5789166076551737  0.3412707609290138
  0.9376195828671356  0.6285604340418658  0.9999950870574423
  0.8686329594193154  0.6706584560768576  0.6676201005154994
  0.7753799701333719  0.7016458191876040  0.3359985125084535
  0.7005871749781960  0.7424031520667853  0.0062956223649167
  0.2307300365042835  0.5458379049018944  0.6670397600375537
  0.1312967146358730  0.5801967059884490  0.3444179691907507
  0.0748891654456401  0.6149734858717579  0.9958097686076428
  0.0069297523612164  0.6646134765404881  0.6697808516685839
  0.9195203141456432  0.7043919305931610  0.3395492185716833
  0.8454969375626007  0.7505685193226483  0.9990295099546529
  0.8045371540333974  0.7892412862113076  0.6674482147086849
  0.2703015342730453  0.5735552280058798  0.3320378896913496
  0.2051538217229734  0.6240654904620868  0.0102795696007405
  0.1423621714616488  0.6637757578454497  0.6595124231814395
  0.0601559095768280  0.6960194024548301  0.3298365460394592
  0.9923967972657124  0.7440725592468667  0.9923678535591733
  0.9314977957641801  0.8077580185575286  0.6634148025649935
  0.8576947989122985  0.8212857970128482  0.3355614664754540
  0.3447153294361129  0.6233245840686266  0.0003149408061063
  0.2916201414952440  0.6531927166740985  0.6659026201211873
  0.2130720892829956  0.6963868571042013  0.3353694413939508
  0.1245184995464115  0.7426257345024965  0.0071055063888039
  0.0816233319589159  0.8015368429494387  0.6662164433706721
  0.9992386330450742  0.8298858425476396  0.3332423577645400
  0.9215859745319150  0.8737997629863301  0.9968532839799664
  0.4202431059175353  0.6775612209703894  0.6508076523559154
  0.3538516292410847  0.7277634412087437  0.3346469597722646
  0.2780568483763801  0.7274959019159937  0.9917983604862997
  0.2217440167707281  0.7815176624585831  0.6701590117268097
  0.1305618876182422  0.8366489079945794  0.3300590629750673
  0.0623412220204713  0.8775048791838600  0.0042061054336102
  0.0183656802544050  0.9318501543433158  0.6577467905238095
  0.9263876647588845  0.9469871947353212  0.3365866147293559
  0.8427012199089177  0.9986945622597432  0.0039680219463136
  0.7974580292042930  0.0486798126280092  0.6810787978622130
  0.6945944792296288  0.0835008613115988  0.3457922249066527
  0.6364946107233962  0.1249004241391560  0.9943176134675227
  0.5708080236185609  0.1593567428158877  0.6561082285758602
  0.4956256169779749  0.2047704447780987  0.3200481587231891
  0.0744304347922338  0.9558653112901681  0.3291908528313598
  0.1359909433733222  0.0018694824365966  0.9905089258106088
  0.2147127567767129  0.0417953509731390  0.6598274699293256
  0.2681102887791198  0.0835026167160180  0.3267677463254159
  0.3561796779823823  0.1145805297004401  0.0066326757190893
  0.4259812924803015  0.1650458545370341  0.6664832947894723
  0.8706024307315730  0.9238117620931874  0.6803962640448233
  0.8045233190950540  0.9683968664612621  0.3349625913532535
  0.7063342972163866  0.0007045128424323  0.9955171836711827
  0.6536772796375558  0.0503089899506861  0.6431247468809644
  0.5727294334058968  0.0801216462125680  0.3391492680973087
  0.5077875812501986  0.1312626438571911  0.0022275732871648
  0.1513607390794505  0.9209477626218643  0.6601628432879849
  0.2061046412547398  0.9530569762265415  0.3304566900513777
  0.2778166084741045  0.0107564489382952  0.9932927511703156
  0.3688209604231645  0.0466123298919001  0.6627658652127693
  0.4206816449432864  0.0905296442398011  0.3257870178249220
  0.7767476030100298  0.8788526734231468  0.0189244002015485
  0.7257594592232834  0.9206692387605599  0.6627458964785120
  0.6504147856755438  0.9491827207407226  0.3537719577266429
  0.5661721400374731  0.0097813646275497  0.0028523959638775
  0.4932323948577775  0.0428244097128356  0.6539913739271270
  0.2142016792795829  0.8849091846514767  0.9816085451092391
  0.2848855282067149  0.9209697487422659  0.6583805187702154
  0.3426852500839956  0.9548028740980428  0.3199986843408595
  0.4287223622680827  0.9886773968098979  0.9820483464899254
  0.7183237822097368  0.8299945061145309  0.3291480445989095
  0.6378281452205670  0.8808763655391303  0.0026238356093558
  0.5707361061248548  0.9262222193566743  0.6589839330241176
  0.5031975441328740  0.9618629940083068  0.3277099387174118
  0.2733107550022140  0.8379436395699429  0.3285184261185279
  0.3470388737559773  0.8742663628095571  0.9955836423302031
  0.4330684695081075  0.9177491117938743  0.6670177245771995
  0.6607208163126472  0.7979747067967580  0.6637667161922991
  0.5664869872840796  0.8407169168064286  0.3290580711704862
  0.4856551999470753  0.8863488708640261  0.9929865367803146
  0.3598790280265476  0.8067719098994033  0.6675516556633596
  0.4226538756890648  0.8370417361368254  0.3310790166363020
  0.5682744338904087  0.7544359768199342  0.0167977330180946
  0.5134883302647992  0.7874532338092735  0.6616658798551285
  0.4263944817988516  0.7517358258685363  0.0035596223993650
  0.5071408312119203  0.7160859051481552  0.3268570522344660
  0.9879179107363427  0.9940909102134228  0.7752883903308714
  0.9181623411588973  0.0223458130118601  0.4568994780429207
  0.8498663119072702  0.0828548235224957  0.1105859924290371
  0.7847991740966265  0.1383133301518313  0.7931562404447803
  0.7156690754916610  0.1781495666027126  0.4398184045856439
  0.6418620446378256  0.2030959149006222  0.1099835699797183
  0.5908860057997529  0.2482644245464485  0.7795549665594308
  0.4824674288752959  0.2960211283265153  0.4469074762169285
  0.4186704990009389  0.3245628868336397  0.1134563106419790
  0.3756903688205924  0.3731224058887719  0.7860928820902373
  0.2762542880665890  0.4090815969210126  0.4444019663828627
  0.2353469684306333  0.4498713772334071  0.1041866108534322
  0.0642635399727141  0.0213877055411302  0.4484401579652300
  0.0021505755519016  0.0832537797638793  0.1054331412600149
  0.9268911802395650  0.1171278375716511  0.7780854411872369
  0.8586863807468035  0.1688095250686530  0.4530195397992287
  0.7737814388660524  0.2077470664287446  0.1205631792009569
  0.7086668524503636  0.2696961613304438  0.7724825217589810
  0.6323027666843970  0.2893381936791783  0.4395568640370726
  0.5747062366714459  0.3253237611255599  0.1002015240974501
  0.5162391243339215  0.3681547380521693  0.7865116811582951
  0.4231867326811241  0.4252124384703180  0.4516032165820434
  0.3686131858023103  0.4546028581151660  0.1188280138499493
  0.3037955287053222  0.4982683518589184  0.7797774688526857
  0.1306702355809861  0.0762489292977477  0.1095021205583038
  0.0855211548985295  0.1172709482401331  0.7704157047927893
  0.9900580122588565  0.1663874883933403  0.4385141617464043
  0.9406584487234753  0.1989631447854308  0.1151513692760204
  0.8531406549101703  0.2583054612348903  0.7755735714008836
  0.7781504029133401  0.2973863119223452  0.4407842254406731
  0.7206693112798135  0.3311792834392975  0.1291417526905363
  0.6398622838455310  0.3850138942281021  0.7715205936185114
  0.5761203821428822  0.4081621915690476  0.4439056549656968
  0.5045667279155452  0.4514735125997689  0.1226354241762593
  0.4471918419104810  0.4928093863196708  0.7732846319814968
  0.3437592886797134  0.5409015229917955  0.4305043302627425
  0.2309501689030498  0.1308590802801817  0.7739084021308926
  0.1331196943591308  0.1562910449095440  0.4392795661554771
  0.0799066324413857  0.1975356759306734  0.1014614113512735
  0.0114674693442254  0.2419033817839633  0.7868387299044386
  0.9026593275789878  0.3052364606127398  0.4463293699909130
  0.8653050836872467  0.3153463720160090  0.0963174980512704
  0.7903462865135822  0.3852809809881776  0.7800400382423973
  0.7282219586518579  0.4257676314201575  0.4406771234652425
  0.6675154803800609  0.4562749064906839  0.1142556237430199
  0.5849849231427413  0.5055485326999545  0.7792933260982835
  0.5034673720398146  0.5426058247664756  0.4483477362480244
  0.4237274630926819  0.5678873955328569  0.1140287950629428
  0.2811008382368811  0.1722101727273255  0.4466796031920310
  0.2113263838111692  0.2183656634678002  0.1128165717066523
  0.1444176024482999  0.2486655165455716  0.7666993225755050
  0.0668685064012706  0.2874034514003085  0.4403022131496996
  0.0118906653702879  0.3272687898839095  0.1054700404387532
  0.9383130927789622  0.3836666294909108  0.7698489618997186
  0.8513332350884468  0.4250680313764974  0.4548089917012277
  0.8099701299694217  0.4649399454879841  0.1230803068866493
  0.7173818349634047  0.5051100387872580  0.7718204321218920
  0.6256810562108441  0.5375579793754000  0.4529733888020360
  0.5805211687408161  0.5719520529416542  0.1219638527495306
  0.5083709841564854  0.6292961865520255  0.7739940263476370
  0.3636416534327722  0.2084208409872446  0.1152400111109699
  0.3017719198654945  0.2652291078934397  0.7675659655560025
  0.2204015985710583  0.2828483988354549  0.4491634216612184
  0.1550663192952086  0.3411680744773449  0.1113503679969696
  0.0789475140952192  0.3661755436725471  0.7770079886995447
  0.9898670982668705  0.4185706106790192  0.4522729469472822
  0.9406560881111687  0.4472233092971862  0.1156317472211796
  0.8637242500661273  0.5049045126148144  0.7682924953596668
  0.7629437752341914  0.5571707508544392  0.4358308768620560
  0.7221217815900900  0.5848528251682552  0.1297238080472667
  0.6487163590497431  0.6241648154292818  0.7712521203429787
  0.5753525670328870  0.6704367873099528  0.4386931538352243
  0.4454312202748696  0.2588520083001669  0.7748381222464857
  0.3570479654996461  0.3004355423286711  0.4565311847822784
  0.2902001865603339  0.3122811896368418  0.0985522792556495
  0.2307426754555024  0.3590433614806230  0.7754513873636455
  0.1482393739123538  0.4129857032386326  0.4619216289195194
  0.0866522319283973  0.4484846881978015  0.1177150936895757
  0.0091542528573711  0.4946407053461996  0.7714747109210478
  0.9131315312795323  0.5416946369694529  0.4635690395903609
  0.8696112021802733  0.5825370112255115  0.1007257059555613
  0.7921351192472414  0.6104840175378357  0.7751031679177274
  0.7028733165172341  0.6676759383102109  0.4544873287597468
  0.6401973121712530  0.7034425729100846  0.1055583179373230
  0.1504768248346195  0.4877163964233873  0.7692010641550695
  0.0349350104457429  0.5291806481047487  0.4484436148542414
  0.0071118176652902  0.5829285716767103  0.1168167939260059
  0.9290061235594891  0.6183357239129066  0.7893668927619331
  0.8321092949807820  0.6785744052764215  0.4337128994888104
  0.7816651377245449  0.7067716073173145  0.1171866349702597
  0.7227086887072147  0.7513285879770280  0.7738599441006357
  0.1990292853349089  0.5491770941826601  0.4476534385860660
  0.1491018365657553  0.5750467338793470  0.1124924488486343
  0.0726638446326220  0.6201765244147168  0.7776716433465509
  0.9807469548449319  0.6605790533573597  0.4386503710115690
  0.9282736637845161  0.7061459114979272  0.1096383888235692
  0.8553606636055733  0.7542184672827474  0.7796914113943387
  0.7849402082668746  0.7849206696220179  0.4452186578123474
  0.2930235261282945  0.5845192507134485  0.1184772457720200
  0.2061221370303912  0.6241881152324567  0.7688827254600525
  0.1258705165032481  0.6450125315950501  0.4353372337997357
  0.0574126657028131  0.7024974410242137  0.1139277873240232
  0.0014429075681335  0.7559630258826218  0.7754178537744991
  0.9270785864657469  0.7983759225376375  0.4476657058694329
  0.8588800604726501  0.8467216694242268  0.1068736747587238
  0.3708470850166350  0.6240571998716078  0.7666432212331458
  0.2894259383065290  0.6634055717933052  0.4365391528102549
  0.2005507943029627  0.6991100432030919  0.1169738974087338
  0.1522936051457222  0.7491570990004206  0.7808900953045423
  0.0732845241034212  0.7971921173433643  0.4423934436678252
  0.9948874982852587  0.8373591898516892  0.1038643940862087
  0.9164523640008397  0.8819177828290279  0.7723265074094670
  0.4357051343288205  0.6797604847610472  0.4578503826393288
  0.3448439965627514  0.7066583874995160  0.1145817263342863
  0.2786891308942998  0.7372995490699523  0.7730890621568207
  0.2303207478428959  0.7986530029609327  0.4469471707945232
  0.1472682527559854  0.8308588157882468  0.1054017196160260
  0.0502340370677885  0.8630944722795775  0.7515280457186151
  0.9949431939181466  0.9100842351985108  0.4468861754585447
  0.9473751501941550  0.9729195622914730  0.1011767186470465
  0.8585657918223504  0.0010552300241145  0.7855573670452145
  0.7955892931330979  0.0404943982396304  0.4443242003763928
  0.7206414502650631  0.0779268199346959  0.1256755270173073
  0.6381017970244045  0.1178955823293109  0.7651411583829670
  0.5808789863582078  0.1813253404442818  0.4448904424146107
  0.5069440665636478  0.2039300486572202  0.1112540591637483
  0.0760167696000238  0.9529506231897074  0.1056037734223949
  0.1467581325626739  0.9960192242643444  0.7715083121234443
  0.1893785289833829  0.0415184764556500  0.4408170768680861
  0.2724398543672564  0.1032857006614734  0.1144821371816889
  0.3624775591176146  0.1221526420087571  0.7859221805919816
  0.4303803449602555  0.1806966851560290  0.4219569376795320
  0.8527289222001500  0.9056030969220714  0.4530661253299897
  0.7855755945629070  0.9447535245904106  0.1201661378190622
  0.7061963778061013  0.0127842381516743  0.7645102199368665
  0.6568058405625550  0.0545003391085856  0.4510584032075400
  0.5847925996774421  0.0751118150685599  0.1137843946891266
  0.4999015165296967  0.1261177049229190  0.7687042053720248
  0.1481115563325304  0.9101390932195486  0.4426038935758783
  0.2167144960943546  0.9488971979823475  0.1033441966727366
  0.2817006328733100  0.0177159262736097  0.7704406717398129
  0.3409181435179391  0.0498817758510626  0.4371660426437245
  0.4273684119570902  0.0796296413786095  0.0992476449485977
  0.7744275741614857  0.8732484498103688  0.7862597292024631
  0.7247270236531449  0.9214692658575387  0.4520326404051644
  0.6492827085319703  0.9567889693714235  0.1075437630004785
  0.5489465516565133  0.0160980573222176  0.7723344414154880
  0.4978846303760136  0.0602919191942206  0.4476259001821674
  0.2056179665705784  0.8573325149078386  0.7866926891556076
  0.2938886540162713  0.9221214853477093  0.4405101385425709
  0.3567547340971444  0.9599233898482140  0.0941643729839825
  0.4206475919857056  0.9955612182655997  0.7813018841272523
  0.7057201672711741  0.8366565032686424  0.1140824248610031
  0.6410122705125403  0.8831570902930324  0.7740273695860935
  0.5655048426090445  0.9306419384300213  0.4365033802319545
  0.5129684276379010  0.9600501253045408  0.1191296314001136
  0.2868740220739099  0.8197631418417188  0.0894980258652964
  0.3357758812507399  0.8810486767025409  0.7696405739805243
  0.4369679615688540  0.9373736399440347  0.4317655361903192
  0.6429535200957162  0.8023458724591208  0.4406489916150917
  0.5616757337536384  0.8281693709481743  0.1112338260056944
  0.5023065155733022  0.8923834166866698  0.7759679276322871
  0.3600658481664496  0.8077599115857623  0.4413247167349255
  0.4342754785355396  0.8182790042211110  0.1098945573485253
  0.5773945800664677  0.7545386894883990  0.7739399818262456
  0.5003414087455056  0.7960140488406822  0.4512913209562299
  0.4491676994512304  0.7603066258136337  0.7892462013841310
  0.5032004435502841  0.6859832099093879  0.1137751428706792
  0.9804774201712974  0.0041295558555987  0.2168918308548982
  0.9170675392048864  0.0189098652819411  0.8881624763676612
  0.8692469948962867  0.0858016624255171  0.5563167370791930
  0.7689139208356224  0.1347218288963674  0.2464127827805811
  0.6965736062656234  0.1821418913824999  0.8885614458038873
  0.6240300381521067  0.2181478829586112  0.5497499808357347
  0.5634948025530377  0.2521694532282694  0.2188695288174571
  0.5069029836768948  0.2984889496955461  0.8840850027777449
  0.4285946938313430  0.3307712228772672  0.5722651442918476
  0.3490047870090436  0.3689836493330887  0.2133943652752137
  0.2993228555516367  0.4174320788895685  0.8888503313910689
  0.2193799263159093  0.4543561890811603  0.5500197620185787
  0.0544086869585598  0.0418678553206107  0.8836536448710817
  0.9908457279526885  0.0840609775625225  0.5556447832284661
  0.9226735809686488  0.1129831150153890  0.2202408289298603
  0.8530240744854893  0.1776368197547100  0.9089182168189041
  0.7920772449832398  0.2128383477397122  0.5572183197460845
  0.6931515464511975  0.2508198264319006  0.2187255535027504
  0.6528298219069910  0.3097062611307706  0.8971454593609920
  0.5726346950242629  0.3291244920100240  0.5532951210794010
  0.4838252791262860  0.3723279049591284  0.2225125192180997
  0.4387049601834505  0.4328564072174643  0.8912866405688149
  0.3750292880567940  0.4586827275049998  0.5521268200669240
  0.2836970202950795  0.4842903063123174  0.2303270099869508
  0.1336143314871236  0.0684089172303999  0.5396628071127409
  0.0716530336897065  0.1284934806411684  0.2218357609505475
  0.9984981721556352  0.1579570632011453  0.8883871599419493
  0.9312516383759117  0.2055287193749891  0.5679388591017371
  0.8518404698707513  0.2485175902282748  0.2175011115274117
  0.7891565399207963  0.2942440881314354  0.8978049857236954
  0.7121779407789148  0.3434598070910653  0.5656390309341361
  0.6462962851544347  0.3770005250497874  0.2184167215755153
  0.5672127492053889  0.4222785310151522  0.9039516069990512
  0.4978432416110081  0.4615244057218746  0.5599913661752893
  0.4244351864680098  0.5164747792585800  0.2389051790889880
  0.3714459742651144  0.5495160806591954  0.8958968742867199
  0.1958799799611839  0.1245189676449030  0.2132985590194778
  0.1547712601893494  0.1700133311458458  0.8724303536130051
  0.0631004331944354  0.2109775713975210  0.5539601043052826
  0.9976029073935209  0.2467354006348614  0.2273927037979675
  0.9295512273870514  0.2842962542457173  0.8868937636464622
  0.8633806590484028  0.3382012705873123  0.5656733177435243
  0.7974547053262029  0.3649722529342654  0.2236091549204815
  0.7267136071627718  0.4208092404280350  0.8999456273174786
  0.6427423787876023  0.4548970437359117  0.5676255470428870
  0.5799545767916783  0.4924522229181463  0.2311139011985190
  0.5140476200733346  0.5491892784240378  0.8762831307089058
  0.4232021835345776  0.5787982878719120  0.5539757165066774
  0.2794336641731903  0.1662486379269481  0.8965206556332177
  0.2093009966753954  0.2030118792185576  0.5626141750967903
  0.1195508581848159  0.2728383594320718  0.2208465041364676
  0.0792845055886815  0.2833512724635057  0.8962902649836550
  0.9849625466625369  0.3495939655663491  0.5618007919794294
  0.9278453650996497  0.3667843182827752  0.2163247787496303
  0.8663799221359625  0.4288778053568691  0.8960144916301687
  0.7921175090959593  0.4598801128524599  0.5554075455528107
  0.7099799105551057  0.4927150097905368  0.2281466574505941
  0.6613191688205404  0.5567618462329449  0.8874655814093728
  0.5714561745610709  0.5842911414612928  0.5562350331391031
  0.5169513687624274  0.6160958780700980  0.2228124528968181
  0.3640809144146075  0.2061604985798979  0.5503153085877415
  0.2738188053719739  0.2433257123367980  0.2191693552624230
  0.2195576715688929  0.2802417424834260  0.8782281193610757
  0.1384481856731270  0.3365707993801621  0.5503407539954281
  0.0564624307219148  0.3811715685390809  0.2378216978247494
  0.0145020387950012  0.3937176261071826  0.8790327631425967
  0.9407669186158714  0.4591811609252545  0.5678437685990261
  0.8681314103169413  0.5042672784705573  0.2243071153258143
  0.7989368827337699  0.5395392675414641  0.8882770704943539
  0.7182520425481229  0.5846179208123914  0.5647124343785421
  0.6345292221412819  0.6090401851837512  0.2270476113573068
  0.5790545425379392  0.6788946462039362  0.8939142556297739
  0.4078288582418708  0.2383134413110071  0.2225837413814631
  0.3653974801984177  0.2869912851030492  0.8984248317205186
  0.2908921091455312  0.3282071044580164  0.5565795192137912
  0.2039245500194085  0.3705518330736481  0.2206863744223782
  0.1644777349608475  0.4078846367118842  0.8800368909962373
  0.0835085389803965  0.4619224087327822  0.5639385361084877
  0.0068419696252988  0.5064217054336950  0.2217570052927798
  0.9466944578437833  0.5274005494658240  0.8994387863205873
  0.8542565317668291  0.5911339272339973  0.5596250750420992
  0.7986059747565548  0.6190096961152776  0.2207196026752456
  0.7190282840580196  0.6707384377038323  0.8842569648109659
  0.6556619781053570  0.7242273794794301  0.5602594609027420
  0.1486218665526096  0.4906956085638967  0.2300514463637384
  0.0848489563308235  0.5380444543249112  0.8879707419800766
  0.9961873595727440  0.5973656343586597  0.5667208963708461
  0.9292040150825827  0.6162879329853084  0.2291438999496123
  0.8700553813057752  0.6522873734267520  0.8934870458176647
  0.8090333899014581  0.7113574397652940  0.5608141850019166
  0.7229092000132624  0.7475741494736639  0.2165088302046030
  0.2145632867758067  0.5279896525218675  0.9058693453572957
  0.1280589011652395  0.5779874313434163  0.5477442591180974
  0.0755313851649291  0.6198595584459738  0.2222559252033776
  0.0164881483225230  0.6618917100231769  0.8871810390046662
  0.9276775356590576  0.7187291498872881  0.5581298652472171
  0.8546311103875723  0.7524036394688522  0.2185242490407120
  0.7869657138767536  0.7886219455313537  0.8976332015520896
  0.2723658953611192  0.5750703494230223  0.5455976412880119
  0.2182054944547787  0.6221090328891279  0.2339297950500239
  0.1519466901545456  0.6739178296046049  0.8723270082643211
  0.0716830466155614  0.7075384877231841  0.5550394056063013
  0.9930266626735431  0.7612443998144229  0.2209224829136573
  0.9238138438369745  0.7668540490224345  0.8910927834696381
  0.8609056756182625  0.8488064441931371  0.5632920311107057
  0.3662287271203652  0.6163148309950159  0.2280869114524791
  0.2956307790764541  0.6508831615607633  0.8864741958544897
  0.2148565638653324  0.6983196243763530  0.5515902813486449
  0.1394974800884086  0.7500309726072771  0.2255444882279747
  0.0597675124828427  0.7909227093796858  0.8700835075343534
  0.0016013120136122  0.8330995405899770  0.5534589897632642
  0.9343745956821152  0.8830109058367981  0.2214037988311972
  0.4351975688495742  0.6699199683752113  0.8786518180212965
  0.3568940808012115  0.7160797964131618  0.5482539743241901
  0.2825731707958781  0.7405438727641283  0.2100074688957534
  0.2172022429140625  0.7832531586723448  0.9008284186681479
  0.1488977947482439  0.8353338439420739  0.5637289358879940
  0.0617621321815136  0.8763121184993707  0.2211999117151819
  0.9913493624439766  0.9031298457702164  0.8835898153770643
  0.9357379621936630  0.9505862597495280  0.5659337631296779
  0.8538866791247415  0.0051772391934506  0.2151955887736179
  0.7792395487041190  0.0586423006758636  0.8887596025891114
  0.7331608046883105  0.0980113141049657  0.5481372170040899
  0.6393515234058142  0.1196399504023233  0.2316999758831741
  0.5743137050099705  0.1694158023412129  0.8805409464994014
  0.4904491424969564  0.2030634081008813  0.5600029319173316
  0.0758727257744027  0.9540858266373959  0.5404413414124676
  0.1446771072587225  0.9943123990518998  0.2237512697941000
  0.2035246512923123  0.0390911355362320  0.8872398659793390
  0.2792710454803995  0.0886254219088087  0.5649437186427377
  0.3464208503002908  0.1082705593225839  0.2101490712867644
  0.4292790969258249  0.1801031644834055  0.8947208141152316
  0.8538704536668789  0.9090162646115090  0.8953766372527454
  0.8021816592541100  0.9685926618922878  0.5660150372734165
  0.7216819539397363  0.9989926563417981  0.2294833180449842
  0.6380354262447767  0.0430575073441091  0.8792042484377873
  0.5696212785802146  0.0892875106695641  0.5528301791966541
  0.4880623531074946  0.1232653690438639  0.2069018518279293
  0.1370162019786605  0.9091817221548339  0.8697254634952998
  0.2221030575329976  0.9490845976507103  0.5524436803142052
  0.2804094312264525  0.9778261557492200  0.2268024935078330
  0.3430986408521903  0.0472578822107224  0.8870776092470791
  0.4329083718810125  0.0725535545936751  0.5514549325374745
  0.8021158204175549  0.8797606613278859  0.2252005443512815
  0.7273198522527480  0.9237037152914169  0.8890622972140747
  0.6364550995044809  0.9507038130794143  0.5541385852034608
  0.5875414845091029  0.9965330426743009  0.2322262727010411
  0.4928551171711106  0.0601674868479591  0.8776291451876190
  0.2110173741536343  0.8690089865706412  0.2114543218649203
  0.2798824951592565  0.9323073152432784  0.8843502805734644
  0.3776487273604801  0.9621547439021825  0.5432277339224711