Li 
 1.0000000000000000
   -11.0705700000000018   19.1747897087477881    0.0000000000000013
   -18.9781199999999970  -10.9570226907130195    0.0000000000000076
     0.0000000000000001    0.0000000000000001   23.2203000000000017
 Li 
 504
Cartesian
  0.0779591500000000  0.0592005600000000 -0.0783501500000000
 -11.2019366599999994 17.3456349500000009 15.4066951099999994
 -10.9681040700000008 15.5945092400000007  7.8187501900000003
 -10.7343311999999997 13.2522110200000007  0.2588590600000000
 -11.3024331500000006 11.7741284900000007 15.4462200999999997
 -11.2189836500000002  9.8076390199999999  7.7989046200000001
 -10.8810209899999997  8.2104267899999996 -0.2864272000000000
 -11.0942257000000009  6.6714079000000002 15.4347302499999994
 -10.6817895000000007  4.1468839099999997  7.6307482200000001
 -11.0921336400000001  2.7691460100000000 -0.0241397200000000
 -11.3828054999999999  1.0112317600000000 15.6664929999999991
 -10.9095722700000000 -0.8533984000000000  7.8732468400000002
 -1.4012887900000000  0.8545701500000000 15.0524043699999996
 -1.1157522600000001 -1.0455436700000000  7.6054574800000001
 -12.1875399499999997 16.4083132300000010 -0.0985112300000000
 -12.6094110599999993 14.7347579500000005 15.5230901499999998
 -12.7113537900000004 12.5370968400000002  7.8458049799999996
 -12.7336734099999997 10.6312394599999998  0.0616393200000000
 -12.7821373699999992  9.0725060800000001 15.3440817299999992
 -12.7839295899999996  7.0406552500000004  7.7342326400000001
 -12.5965968299999993  5.4281246599999999  0.1712722000000000
 -12.5225761200000001  3.8004050899999999 15.5695390899999992
 -12.4891290999999995  1.9760248199999999  8.1196364800000005
 -12.8091348899999993  0.3142898400000000  0.2396287900000000
 -2.7121960500000002  1.6877691699999999  7.6958615200000002
 -3.3652510599999998 -0.0690714800000000 -0.4609090000000000
 -3.0394611299999998 -1.4306890000000001 15.3464109700000009
 -13.5873696400000004 15.0594091599999995  7.5030651099999996
 -13.8658528600000004 13.4538082699999997  0.4093236600000000
 -14.2477879499999993 11.9728848299999999 15.4844279300000007
 -14.3920291400000000  9.8501193600000008  7.9802898899999999
 -14.3841152000000001  8.1847170800000004  0.4301042400000000
 -14.3404491499999995  5.9309172900000000 15.5846824999999995
 -14.1429874000000009  4.5865500600000004  7.8941634299999999
 -14.2527573699999994  3.0906417300000002 -0.1343722600000000
 -14.4209106400000007  1.4272712800000000 15.5847572900000007
 -4.8413250500000000  2.8997530700000000  0.0482531300000000
 -4.5050634900000004  1.1471125300000000 15.1566929300000002
 -4.1114990400000000 -1.4870181200000001  7.6537663499999997
 -4.4414449600000001 -3.2287894000000001  0.2341673700000000
 -15.6950061699999992 14.8280563599999997 15.5627932900000001
 -15.6800704199999998 12.5253270299999997  7.7274528599999996
 -16.0001942600000007 10.7853421899999997  0.0962299100000000
 -15.8452364600000006  9.0997273199999995 15.7814275399999993
 -16.0975210799999999  7.3324033699999998  7.9878579900000002
 -16.0043656900000002  5.5340043999999997 -0.0875160400000000
 -15.8158857600000005  3.2389743800000002 15.4593896100000006
 -15.8745034300000007  1.6673432900000000  8.0024718499999992
 -6.7894090599999997  3.8078340800000001 15.5414120300000000
 -6.1762987499999999  1.3482275500000001  7.5651544499999996
 -6.3149841400000000  0.2551788600000000 -0.2073556800000000
 -6.2156647500000002 -1.9712551599999999 15.3649254400000004
 -17.0122128000000004 15.2668489899999997  7.7639519500000000
 -17.4735703899999990 13.7871230699999998 -0.2369478600000000
 -17.3742600399999993 11.6489038199999992 15.5846534000000005
 -17.8261732899999998  9.9574870799999999  7.6668886299999999
 -17.5800327100000011  8.3087366700000000  0.1902148800000000
 -17.5656132400000011  6.3287733700000004 15.4846356000000007
 -17.2003920999999984  4.6253542599999999  7.8584344599999998
 -17.2555784500000016  2.6771792300000001  0.0536044600000000
 -7.6339565499999997  4.2405329900000002  7.6156707199999998
 -7.9151453399999996  3.0523664099999999 -0.1071266700000000
 -8.1901503200000008  0.8455274300000000 15.3948553500000003
 -7.6534058399999996 -1.0177978999999999  7.9900762299999997
 -7.8695297999999996 -2.3074882200000002 -0.2959481500000000
 -19.0637037599999992 14.4265094600000001 15.6073265899999996
 -18.8547341899999985 13.0308318799999991  7.8407437099999999
 -19.4462109299999995 10.7925726900000001  0.0231849000000000
 -18.7603859100000001  9.1723242000000003 15.4068064299999996
 -19.0082747500000018  7.0761627999999996  7.7054788399999996
 -19.0096054499999987  5.3657777299999996  0.2021726600000000
 -19.0822739599999984  3.7817157500000000 15.4940904199999991
 -9.4983095500000001  5.3678380800000003 -0.0061476400000000
 -9.5229907399999991  4.0508412199999997 15.9435132300000006
 -9.2897793800000006  1.6817026900000001  7.7215005100000003
 -9.5523159900000003  0.1847678500000000 -0.4374786500000000
 -9.5118011300000003 -1.8801031500000001 15.4932479099999991
 -9.4837512700000008 -3.8666473699999999  8.0080264200000002
 -20.7007313999999987 13.8290922300000005  0.1194192700000000
 -20.8418029000000011 11.7895546000000007 15.6386728900000005
 -20.6429341099999988  9.5751628199999992  7.7974218300000002
 -20.6188555800000017  8.1161971299999998  0.1831930700000000
 -20.3117876499999994  6.6880739299999998 15.8900758300000007
 -20.6454702599999997  4.6286621800000001  7.7651726300000004
 -11.0094983699999993 -2.5363031399999998  0.2602956500000000
 -11.2682449699999996 -4.4406682799999997 15.4985667399999993
 -21.7804728300000008 12.3520759299999998  7.9244094499999997
 -22.3088785700000010 11.0915073900000003 -0.0001140800000000
 -22.3440986399999986  9.3074344100000008 15.5023390200000009
 -21.8998167899999991  7.1797987100000000  7.8019862599999996
 -21.8453154699999992  5.2990835699999996  0.1461862400000000
 -12.9132902800000000 -1.5565583800000000 15.4888633400000000
 -12.4645721799999993 -3.8396415799999999  7.9974885699999998
 -12.5001063600000002 -5.3022944399999998 -0.0972984300000000
 -23.7604006199999986 12.0254813100000000 15.5525123099999991
 -23.5476485900000014  9.9135702899999991  7.8844347199999998
 -23.6045124599999987  7.9882296799999999 -0.0225350700000000
 -23.8850007200000007  6.7790960599999996 15.4983477799999996
 -13.8773920000000004 -1.1014825699999999  7.7100194100000001
 -14.1147595100000007 -2.9041183500000001  0.2386946900000000
 -14.1732463699999993 -4.5432413399999998 15.3140763199999999
 -13.8750999499999992 -6.4728234699999998  7.6589035499999998
 -25.1074965299999988 10.8761799799999999 -0.1772207300000000
 -25.6419401600000008  9.0106514099999995 15.4046907399999995
 -25.0816307199999997  7.4472702899999996  7.7918379199999999
 -15.6457239399999999 -0.2199376600000000  0.0073130200000000
 -15.6247709500000003 -1.5652925300000000 15.4624586100000005
 -15.5749428200000004 -3.5447140899999998  7.7873790400000003
 -15.4721310699999997 -5.7493509800000000  0.1649919900000000
 -16.1152791999999998 -7.2173471500000002 15.4697456800000008
 -26.8118143400000015 10.0671126500000003  7.7379875199999999
 -26.7855588000000004  8.0969734300000002 -0.0730676900000000
 -17.5111688799999996  0.6340195100000000 15.1119489300000005
 -17.7289211500000015 -1.1890899600000000  7.7706027999999998
 -16.8847523300000013 -2.6395075100000001 -0.1904445300000000
 -17.2865686399999987 -4.3112118700000002 15.5612933000000009
 -17.3234178900000018 -6.6636843299999997  7.6640704599999996
 -17.3435457600000014 -8.4194610500000007  0.0976670300000000
 -28.9586526000000006  9.3166444800000008 15.2730777999999994
 -28.2276761100000009  7.3871284800000003  7.8156421700000003
 -9.3044080900000008 16.1729223900000001  0.0921386600000000
 -9.7521662599999992 14.7577041999999992 15.8148540099999995
 -9.2742461699999996 12.4037822400000000  8.0293992000000003
 -9.4167333800000002 10.8361135300000004 -0.1319467200000000
 -9.3434615700000005  9.1990483699999999 15.2350299000000007
 -9.3730161600000006  7.2598425700000000  7.4316142599999999
 -18.9645139200000017 -9.0462499699999999  7.6439103599999996
 -1.5409765200000001  2.5871137800000001 -0.2203855900000000
 -3.1701897899999998  3.6591193500000001 15.3213918000000007
 -4.5528563999999996  4.2260183400000004  7.5876450999999996
 -6.1176351000000002  5.5742089600000000  0.1540127200000000
 -7.8481157499999998  6.3596905300000000 15.4759420500000004
 -27.1702756299999990  6.5713920899999998 15.7990053699999997
 -27.2848836599999984  4.8158190200000002  7.7779318599999998
 -7.8328936100000002 13.5360922499999994 -0.1040923400000000
 -8.1913501300000000 11.9828876300000005 14.9335495599999994
 -7.8609995000000001 10.1040717499999992  7.8751477500000000
 -8.1126161700000008  8.2984723200000001  0.0517249200000000
 -19.1535068099999997 -7.1885351899999996 15.3291792699999991
 -20.3689255200000012 -6.4906537599999998  7.6733034800000004
 -3.2797253899999999  5.2092163899999999 -0.1557443300000000
 -4.9676726499999999  6.5613320000000002 15.3896222199999997
 -6.3752680499999999  7.0745467099999999  7.5648722900000003
 -25.2780102100000015  5.2643632599999997  0.4394302500000000
 -25.5071421899999997  3.8284912699999998 15.3891585400000004
 -25.2141659900000015  2.0713501299999999  8.2146909899999994
 -6.4534802200000003 10.7490570900000009  0.0662334900000000
 -6.2730905400000001  8.9883994200000004 15.1858758999999992
 -19.1652473800000003 -5.5886978599999999 -0.4270551000000000
 -20.6321195899999985 -4.6284663400000001 15.2877931599999997
 -21.9140845700000000 -3.8908791500000000  7.4304654499999998
 -4.5313192000000004  8.3447231599999991 -0.4168427800000000
 -23.7039890500000006  4.6794388299999996  7.6429163400000002
 -23.7784985000000013  2.5784382300000002  0.0609262500000000
 -23.8963304399999998  0.7951069400000000 15.3018046200000004
 -23.8250349600000000 -0.8904475600000000  7.6095230899999997
 -18.9283007900000015 -3.9406912200000002  7.6282964099999999
 -20.4338500900000000 -2.9249589500000002 -0.1025491500000000
 -22.2114675800000008 -1.7518010100000001 15.4883516700000001
 -22.4586157899999996  3.9257557400000000 15.4128622800000006
 -22.2265603799999987  1.6505145200000000  7.6408271299999999
 -22.1977151200000016 -0.3994083600000000 -0.1628547200000000
 -19.2950800899999990 -1.9392134400000001 15.5007497099999991
 -20.5644978300000005 -1.0671861100000000  7.6877540900000003
 -20.6088984000000011  2.6301706500000002  0.3900484000000000
 -20.6289904700000015  1.2178878000000000 15.3640802300000008
 -18.9869626700000005 -0.0607619800000000  0.0826555000000000
 -19.2043023099999992  1.8781492799999999  7.5897188099999999
  0.2458990300000000 -0.1669254900000000 18.0024290100000002
 -10.5886619900000003 17.3607262300000009 10.6093429500000003
 -10.9809332800000004 15.3881656299999996  2.5678399199999999
 -11.3131011699999995 13.5328568300000001 18.4173258500000010
 -11.3038084500000000 11.7708151799999996 10.2127152999999993
 -10.9601573400000003 10.0822431800000007  2.5538514900000000
 -11.2530369300000004  8.6098759699999992 18.1015001899999994
 -10.9591139399999999  6.0077012700000001 10.3773256699999994
 -10.7945144800000001  4.4716758600000004  2.6344895699999999
 -11.2402683200000002  3.1154731500000001 18.2533125500000004
 -10.8218920700000005  0.8148015400000000 10.3191469799999993
 -11.1431380699999991 -0.4165222600000000  2.4192443600000000
 -1.1173324600000001  0.9978942900000000 10.4129149999999999
 -1.6038083200000000 -0.8709767200000000  2.4481891700000000
 -12.4840798500000005 16.4895710899999983 18.0673773699999991
 -12.7098351100000002 14.6154809799999992 10.5192496200000001
 -12.5088503400000004 12.5608070499999993  2.7995131899999999
 -12.9636721099999992 10.6334709099999998 17.9372758999999995
 -12.4910470000000000  8.9539874299999997 10.2066422499999998
 -12.5363589999999991  7.4552914000000001  2.3267094500000001
 -12.7019461600000003  5.8648968300000002 18.2630371899999986
 -12.7546510299999998  3.4554542700000002 10.4863621699999996
 -12.7082656699999994  2.0869864900000001  2.7592221299999999
 -12.8193862400000000  0.3656777400000000 18.1066667599999995
 -2.8936553200000001  1.6701130399999999  2.5426720899999999
 -3.1723500599999999  0.3549097200000000 17.8892837900000004
 -3.0476582500000000 -2.0137470099999999 10.1824303900000004
 -14.1895716400000005 15.8568842500000002  2.6738493399999999
 -14.3469053800000008 13.5285338500000005 18.0090509999999995
 -14.2584016200000008 11.6624017700000007 10.2351419499999992
 -14.2633802400000000 10.1899435700000005  2.9987102399999999
 -14.3904800900000005  8.0506187600000008 17.9149396400000001
 -14.1241320699999999  6.5747447799999996 10.3076224799999991
 -14.1539597799999992  4.7281553799999996  2.8476313400000000
 -14.3032642600000006  3.1750859000000000 17.9559011400000017
 -14.0709052799999998  0.6648418100000000  9.9964396999999998
 -5.0402093399999996  2.9945950099999998 17.9703852700000013
 -4.4398210999999996  0.8400576199999999 10.2002033099999991
 -4.6334677299999996 -0.6322100100000000  2.3559644099999999
 -4.7178228300000002 -2.4306545300000000 18.2706313599999994
 -15.7857674499999998 13.9638199600000004 10.3639018699999994
 -15.5641017900000005 13.1367856599999993  2.2365211999999999
 -16.0614925799999995 10.9331913899999993 18.1127636999999986
 -16.1421013699999989  9.2983573199999991 10.2326550100000002
 -16.0490167799999988  7.8000544600000001  2.6530498599999999
 -16.0704772600000005  5.6776561399999999 18.0954248200000016
 -15.8713092400000004  3.7085366500000001 10.4107689400000005
 -15.4683396799999997  1.9025299200000001  2.6477828300000001
 -6.3801718300000001  3.5031386900000001 10.3720343899999996
 -6.4836732899999996  1.6595014400000001  2.6196346400000001
 -6.3179891899999996  0.0445434500000000 17.8029882800000010
 -6.1946496700000004 -1.8668965900000001 10.2239494799999999
 -17.4131528099999997 15.8168991600000002  2.4490459800000002
 -17.6689321100000001 13.7881122699999992 17.8761238499999990
 -17.4917362800000014 11.6666556900000007 10.5608012299999992
 -17.7905170999999989 10.4366493800000004  2.8579616500000000
 -17.5278647499999991  8.2211436700000000 17.9219019800000012
 -17.1284857700000011  6.1072677000000004 10.5181779800000008
 -17.2812749299999986  4.8644797100000003  2.8320372500000000
 -17.5708151100000016  2.8526941200000002 17.9723734899999990
 -7.9811561099999997  4.6890803500000002  2.6759076300000002
 -8.3743370000000006  2.8802917500000000 17.8231119900000010
 -7.8079021800000001  1.1269779799999999 10.4297094000000001
 -8.1914011999999996 -0.7648222700000000  2.5855889500000000
 -7.8233173899999997 -2.4983917600000001 18.0423586000000000
 -18.9020762799999993 14.3942057699999992 10.5019135099999996
 -18.9010567000000016 13.1366467300000007  2.6850038600000001
 -19.1440581999999999 11.0294806600000008 17.8399822300000004
 -19.0202758400000000  8.5243538900000004 10.1201237099999997
 -19.0937068299999986  7.4382876299999996  3.0122257399999999
 -19.0271346299999990  5.6000117200000004 17.9087056099999984
 -19.0931106700000015  3.6862733900000002 10.1865866399999998
 -9.8437019800000005  5.7048026500000004 17.9919736499999985
 -9.6544262700000001  3.5544406000000000 10.6007910699999996
 -9.1391913700000007  2.1428554700000002  2.2884134899999999
 -9.3684209400000000  0.4903960200000000 18.0062138500000017
 -9.4787865999999994 -1.6826349000000000 10.7259588000000008
 -9.4706858300000007 -3.2525185799999998  2.7333797899999999
 -20.5592634600000004 13.9305311500000002 17.9138742300000011
 -20.3892323600000012 11.5737446599999991 10.7642121700000004
 -20.6825489900000008 10.2917406800000002  2.3388811100000000
 -20.3552262299999995  8.4999371000000004 17.9981280900000016
 -20.4524423300000002  6.1617076300000004 10.5533321200000003
 -20.4373667200000000  4.5680126000000003  2.4510958100000000
 -10.9218045200000002 -2.4585581500000000 17.8610794700000000
 -10.4296043199999993 -5.1283728899999996 10.4129952699999997
 -22.2121902599999999 12.9239957299999997  2.7125210000000002
 -22.0194768900000000 11.0383785000000003 18.3293360599999993
 -22.0899906900000005  8.5203655900000008 10.0709436399999994
 -22.0666750000000000  7.2441521000000000  2.7211088200000000
 -22.2596012300000012  5.6254627399999997 17.9692600599999999
 -12.6257164300000007 -2.2010011899999999 10.3946471400000000
 -12.5639482400000002 -3.4418037500000001  2.6121084099999998
 -12.5742146800000008 -5.4019743099999999 18.0577688599999995
 -23.3939763599999999 11.5676369399999999 10.1855932100000004
 -23.6778404199999990 10.0621955199999995  2.5458362800000001
 -23.7829786799999994  8.1373719900000001 18.1046684800000008
 -23.5860541800000014  6.4506698399999998 10.3381108000000008
 -14.3370139400000003 -0.7859262000000000  2.7510771900000002
 -14.1278065000000002 -2.8868947100000000 17.8536875500000001
 -13.6345835900000001 -4.6538762599999997 10.1086611699999995
 -13.9676716699999997 -6.5964046099999996  2.6454374000000000
 -25.4333008300000003 10.9193531299999993 18.0054351900000000
 -25.4149624500000009  9.0287138400000000 10.3949319899999999
 -25.5774772800000001  7.1912960000000004  2.4816387899999999
 -15.9489210400000001  0.2731059700000000 17.8016855900000017
 -15.7943006599999993 -1.7192684000000000 10.1365700899999993
 -15.4880058999999992 -3.8146453000000000  2.7161689899999999
 -15.9035703399999999 -5.2883334800000004 18.1325022800000006
 -15.9405091199999998 -7.3296367800000004 10.2725084800000008
 -26.9054748799999999  9.9017949200000004  2.4117623899999998
 -26.8827915600000011  7.9095882000000000 17.9336531999999984
 -17.7240802399999993  0.9064032700000000 10.6314232400000002
 -17.2286672799999998 -1.1305608700000001  2.6606220600000001
 -17.0778068500000018 -2.7348024099999999 17.9513599500000005
 -17.7067144899999995 -4.3345071700000002 10.3782473900000003
 -17.3984818099999998 -6.2799011199999999  2.4474595500000000
 -16.9360298900000004 -8.4937186199999992 17.4507066799999997
 -28.2862760999999985  9.1060128999999996 10.3768310600000007
 -28.9521671199999986  7.5054175599999997  2.3493537600000001
 -9.5248389800000002 16.4512563299999997 18.2408777300000011
 -9.5761345099999993 14.8115593499999996 10.3173412300000003
 -9.4568161600000007 12.9643023300000007  2.9182234399999998
 -9.3015871200000007 10.9436832000000006 17.7668072399999986
 -9.8718755500000004  9.1514465400000002 10.3304895400000003
 -9.4823687099999994  7.4860797000000003  2.5833526299999998
 -18.9267602500000010 -8.9838960300000004  2.4521513000000001
 -1.5491485400000000  2.8576737799999998 17.9146544600000013
 -2.8844708899999998  3.1763745800000001 10.2359047699999994
 -4.9762329000000003  4.0922731499999996  2.6583095700000001
 -6.3310606900000002  5.6120017000000004 18.2493488100000008
 -8.1938391100000008  6.2725549300000001  9.7979666800000000
 -26.6268394700000002  6.4281840800000003 10.5203313499999993
 -26.6264153700000001  4.7115610200000004  2.7902937699999999
 -8.0606172399999991 13.4010898500000000 17.7521566600000007
 -8.3055290100000008 11.9969524199999995 10.4737114400000006
 -7.8994684499999996 10.3902732600000007  2.6421077799999999
 -7.9276716699999996  8.2036318999999995 17.8495422599999998
 -18.9124082800000011 -7.1324067500000004 10.2773951900000000
 -20.4074378900000006 -6.2416332399999996  2.3996832499999998
 -3.4548015500000000  5.2074365900000004 17.8898635299999995
 -4.7208205000000003  5.9904779599999998 10.1511266599999992
 -6.2424328100000004  7.3221956400000003  2.3045600899999998
 -25.1459685399999984  5.2812827999999996 18.2571867899999987
 -25.5108955500000008  3.7999286200000002 10.4963335200000003
 -25.3459855500000018  1.9663009499999999  2.4971984400000000
 -6.3826620900000002 10.3495479100000001 17.9338374300000005
 -6.6560939299999999  8.8862131600000005 10.3940076900000005
 -18.5468674399999998 -5.4511305500000002 18.2672402500000004
 -20.7536471200000001 -4.4684528999999999 10.2287775700000001
 -22.1670195399999983 -3.6772053599999999  2.1865249900000001
 -4.5725688800000004  8.1144649500000003 18.1420641399999987
 -23.6908920300000005  4.3647715099999997  2.6490281300000000
 -23.8570324499999984  2.6145032100000001 17.9731477300000009
 -23.9222953300000007  0.6463716000000000 10.1357394400000000
 -23.8987993699999990 -0.6832292800000000  2.7662257800000001
 -18.7334222200000013 -3.4814143000000000  2.0781710100000002
 -20.4378779100000010 -3.2152384299999999 17.8712850199999984
 -22.6270738300000005 -1.8920554700000001 10.0257252799999996
 -22.3448782000000001  3.5371766099999999 10.2320017799999992
 -21.9351682299999986  1.6957434899999999  2.5828828100000001
 -22.4965790100000014 -0.1462435400000000 18.0182080700000000
 -19.3158987099999990 -1.9464567600000000 10.2476923200000005
 -20.3370742200000016 -0.6387606400000000  2.5517845900000000
 -20.7118129099999990  2.8039221099999998 17.9711185600000007
 -20.6459147300000012  0.8719973000000000 10.4791198600000008
 -19.4017328400000011  0.2819992300000000 18.3265335699999987
 -18.5893874100000005  2.1324290900000000  2.6418929499999999
  0.1377548800000000 -0.4195890000000000  5.0362933800000000
 -10.5113340799999992 17.3773813900000000 20.6233991500000009
 -11.2514139499999999 15.7274975700000006 12.9178415300000005
 -11.0690824200000009 13.2676125999999996  5.7217787400000004
 -11.1681775400000003 11.3609195799999991 20.6326633400000006
 -11.0484049199999994  9.5753934500000000 12.7653594800000008
 -11.0239107999999995  8.0418679199999996  5.0822161200000000
 -11.2764640699999994  6.4492079200000001 20.5287189900000016
 -11.0222035199999997  4.5939453300000004 13.2881683299999995
 -10.8662978999999993  2.6491311799999999  4.9550811799999996
 -11.2357507099999996  1.1656400499999999 20.6393713500000011
 -11.0514871100000001 -0.7718271200000000 12.7716238799999999
 -1.3969083600000001  0.5845280899999999 20.5187027300000011
 -1.4939763100000001 -1.0965892800000001 12.9022385600000007
 -12.3587295800000003 16.4541133299999984  5.1140581200000002
 -12.8146756100000001 14.4101865799999995 21.1053536699999995
 -12.8080182899999997 12.8558400000000006 12.9387765500000000
 -12.4336714799999992 10.5427966099999999  5.0788729699999999
 -13.1048408300000006  9.1244160200000000 20.8319867099999989
 -12.5855565800000004  7.3739253299999996 12.8476786999999995
 -12.4223052799999998  5.1976426800000004  5.1668074500000003
 -13.0715148100000000  3.6692578800000000 20.6959431800000004
 -12.8567238300000000  2.1653106800000002 12.8205504000000001
 -12.3316072699999992  0.1334508300000000  5.3482622700000002
 -2.7774594499999998  1.8124686500000000 12.5311322799999996
 -3.2318046200000001 -0.0339741300000000  5.1510929200000000
 -14.0516720100000008 17.4152533500000004 20.6286163699999996
 -14.2100351499999995 15.6045714899999997 13.1877106899999994
 -14.1467562000000004 13.6108490000000000  5.0504410599999998
 -14.3206123299999994 11.9078715499999994 20.8473011100000001
 -14.4024371799999997  9.8925653499999999 13.1343079899999999
 -14.3096294700000009  8.2617920500000004  5.0717017999999996
 -14.2934210799999999  6.2492697399999999 20.9900275000000001
 -14.2702740099999996  4.4891060800000000 13.0031675199999999
 -14.5004597799999999  2.4794295700000002  5.5474499300000000
 -14.5409007799999994  1.1013382800000000 20.8029941899999997
 -4.5316389399999997  2.3916002700000001  4.9528565300000000
 -4.9399394699999997  1.1048664399999999 20.2580945399999983
 -4.7025154300000001 -1.1017485000000000 12.8631198100000006
 -4.6560368600000004 -2.7494491299999999  5.2801267999999997
 -15.6860703600000004 14.7089087999999997 20.5939392599999991
 -15.9765403199999998 12.8494635800000001 13.1351041399999993
 -15.7547653499999996 11.2920170199999994  5.1922716600000003
 -16.0313021199999994  9.3237641999999994 20.8970074500000003
 -15.7486151799999998  7.3401327199999997 13.1804354900000007
 -15.7662451200000007  5.7246968699999998  5.3665341199999999
 -16.1133801900000009  3.8392756299999999 20.3475571799999990
 -15.6695927600000005  1.7729069000000000 12.8634823300000001
 -6.2485765400000002  3.5364916499999999 20.8174785799999995
 -6.1698651399999997  1.7888968300000001 13.0640699300000005
 -6.5014552700000001 -0.6971335300000000  5.1281220799999998
 -6.2551991200000003 -1.5844225999999999 20.8121288399999997
 -17.5387330500000012 15.0559406899999999 13.0451829299999993
 -17.2326538700000000 13.7723756599999998  5.0231262599999997
 -17.7306140300000017 11.9134289700000000 20.8057252999999989
 -17.4968523000000005 10.1497698300000003 12.8967298300000000
 -17.2106868800000008  8.2150259400000003  5.2976338299999997
 -17.8874732799999983  6.5802038100000004 20.6072170399999983
 -17.4150929800000007  4.5554606800000004 12.9159443399999994
 -17.4152878199999996  3.1618572700000001  5.1737719999999996
 -7.9431219300000002  4.7222697100000000 12.7784865599999993
 -7.6491948200000000  2.5842926600000000  5.0891781800000002
 -7.7490899899999999  1.1393570500000001 20.3927204000000017
 -7.9201813500000000 -1.0330990400000000 12.7790774099999993
 -7.8589910600000001 -3.0938502899999998  5.5222911699999999
 -18.7031361899999986 15.1388902900000009 20.4114044700000008
 -19.1292211999999999 13.0077494300000005 13.1855026599999992
 -19.1807544700000001 11.1209692199999992  5.2084785100000000
 -19.0841276499999992  9.4077027199999996 20.6260600600000004
 -19.0464085700000005  7.3666600500000001 13.1127921399999998
 -18.5830378899999999  5.4936972700000002  5.2721136499999997
 -19.2946079099999999  3.6645850400000000 20.7569571900000014
 -9.0376390099999995  5.2088268099999997  5.1684612500000000
 -9.4917134300000008  3.8618498200000002 20.8616941199999992
 -9.4490952700000008  1.9816223300000000 12.9239434099999997
 -9.2899381600000002 -0.1499344800000000  5.1244038200000004
 -9.5617458600000003 -1.3153752400000001 20.4347206200000002
 -9.6909060300000007 -3.4600356400000001 13.0948219899999998
 -20.7572463999999997 13.7571089200000003  5.1492641900000002
 -20.4895181800000010 12.3739273599999997 20.8852384499999992
 -20.6757173399999985  9.9031214999999992 12.9946621300000000
 -20.5886636400000000  8.5305983399999992  5.1251753899999999
 -20.6894075099999988  6.4379198600000000 20.5327120000000001
 -21.0030259400000006  4.6368047199999998 13.0093927600000008
 -10.9578089199999997 -2.5267698799999998  5.3418635999999999
 -11.1503985300000004 -4.2684043999999997 20.6189470200000002
 -22.3652385900000006 12.5563343199999995 13.1594292300000006
 -21.9828044399999989 11.0646107199999992  5.3207901000000000
 -22.0111970499999998  9.5360014199999998 20.7470372500000018
 -22.4566876300000011  7.7186855100000002 13.0222736200000000
 -22.1905688199999993  5.6704449700000001  5.0273999900000002
 -12.3955888699999992 -1.6709887000000001 21.0345579600000008
 -12.3867998600000000 -3.8775189000000001 12.7187860199999996
 -12.5999445699999999 -5.3435168199999996  5.1608492600000000
 -23.8145634999999984 12.2385839999999995 20.6006098800000004
 -23.9100471500000005  9.9128900600000005 12.9599429100000005
 -23.7404600899999991  8.1432680699999995  5.0741986199999998
 -23.6787209400000016  6.4489535199999999 20.8433122299999987
 -13.9289998100000005 -1.0785001000000001 12.6689409099999999
 -14.2221190800000006 -2.6324183200000002  5.4319200199999997
 -14.4718299100000003 -4.4705871200000002 20.2556948299999995
 -14.2213225100000002 -6.3780079199999999 12.8881815100000008
 -25.4403587500000015 10.7001052699999999  5.1298863299999997
 -24.7805939899999998  9.3114989700000006 20.6914417600000000
 -25.6394671000000010  7.2072938200000003 13.0798099499999996
 -15.7508575799999999  0.2693832400000000  5.2962465099999996
 -15.6253399799999997 -1.4630835499999999 20.5841967699999984
 -15.6313782600000000 -3.5316745400000000 12.8080918100000005
 -15.7784944199999995 -5.5432715400000001  5.2372106799999996
 -15.6718865199999993 -7.5201285899999997 20.2036000700000002
 -26.8989604900000003 10.0772039600000003 12.8514837800000006
 -27.1019463000000016  8.2412658499999996  5.1410626300000004
 -17.5317067000000009  1.0044935699999999 20.4025588099999986
 -17.5408692100000003 -1.0027336300000000 12.7306217600000000
 -17.1823765500000007 -2.6958748899999998  4.8764364300000000
 -17.2692250700000010 -4.4173153000000003 20.9175061299999996
 -17.5014493900000012 -6.2976879800000001 13.0899550100000006
 -17.3144985499999997 -8.4174958699999998  5.1363283099999997
 -28.1145090999999994  9.1133013399999996 20.5172205900000009
 -28.3994927200000014  7.5269834299999996 13.1411517599999996
 -9.5512665200000004 16.3163703799999986  4.9969061300000002
 -9.7395465899999998 14.2992094600000001 20.6372646000000017
 -9.9765784899999996 12.9842920599999996 12.7279106199999994
 -9.3485271300000008 10.9485333600000008  5.3801429499999998
 -9.5731734999999993  9.1560517299999997 20.4464249400000000
 -9.2833132900000006  7.1792888000000001 13.0034360800000002
 -18.9467096300000009 -8.9990964899999994 12.5492100799999999
 -1.4937180699999999  2.8364722800000002  5.1955716100000000
 -2.9950101600000001  3.4742199299999998 20.6019758599999996
 -4.7736335499999996  4.3838928099999999 13.1181626300000005
 -5.8898479400000001  5.4562239799999999  4.8797244800000001
 -8.1703837600000000  6.2579419500000002 20.7756857199999985
 -26.7042523799999998  6.4126745500000002 20.7909141300000009
 -27.2626759800000009  4.7687728500000004 13.1430389699999992
 -26.9484330999999990  2.8921144999999999  5.3286714899999996
 -7.8805663900000003 11.7624130400000002 20.4153864100000000
 -8.0005413300000008  9.9440429500000000 12.8368826100000000
 -7.7424734099999997  8.0078715400000000  4.8043230699999997
 -18.7714072799999983 -7.3346679000000004 20.1952861800000001
 -20.4706488299999982 -6.1403620500000002 12.8279079899999999
 -21.6615943599999987 -5.3372714999999999  5.2664219399999999
 -4.6951632800000001  6.0610385999999998 20.5982082099999992
 -6.1694725000000004  7.5059560500000000 12.8049489699999999
 -25.5760827400000004  5.7408446499999997  5.2292242000000000
 -25.5820052900000015  3.8251626500000002 20.6442932600000013
 -25.0884917799999982  1.7870094400000001 12.8672641900000002