Li 
 1.0000000000000000
   -10.8535000000000021   18.7988134399488125    0.0000000000000014
   -18.6059999999999981  -10.7421791085421763    0.0000000000000014
     0.0000000000000001    0.0000000000000001   22.7650000000000006
 Li 
 504
Cartesian
  0.0464756500000000  0.0819557300000000  0.3556910300000000
 -10.9383031899999992 17.2198624199999983 15.2790494199999998
 -11.0960105799999997 15.7272182899999997  8.1658553099999995
 -11.2844356799999996 13.5773605199999992  0.2269199700000000
 -10.7218265099999996 11.2136032300000004 15.5298539200000008
 -10.8366060399999995 10.0477312300000001  7.0847530299999999
 -10.7879376100000002  7.8027243700000000 -0.0570995400000000
 -11.2014878699999993  6.0756021300000000 14.9400140199999996
 -11.2696813400000000  4.6722031199999998  7.5358199099999998
 -10.5756347900000005  2.6421613499999999  0.2306381700000000
 -11.0714446800000008  0.6670601600000000 15.9249603799999999
 -10.7723599199999995 -0.8097747100000000  7.6399107300000004
 -1.7638855600000001  0.9718286900000001 15.3072075600000002
 -0.8979166000000000 -0.3549996800000000  7.3660769400000001
 -12.6123003199999992 15.8474795400000001 -0.0349010600000000
 -12.8672915099999994 14.1380183600000002 14.9143344700000000
 -12.3342073600000006 12.7134005200000004  7.7675107700000003
 -12.1781360999999997 10.9716662700000001  0.0002489100000000
 -12.4471843999999994  8.6871504200000000 15.4017194499999999
 -12.3609018299999995  7.1666651000000003  6.9189432300000000
 -12.1410384400000009  5.4297355200000004  0.1932571600000000
 -12.6133454799999996  3.2591110400000001 14.9090896399999995
 -12.5625797099999996  2.1311131200000002  7.3359980599999997
 -12.2976342800000005  0.2460053100000000 -0.0228231500000000
 -3.3067364000000001  1.7801912600000001  7.3980997000000004
 -3.0323704000000000  0.0073466000000000  0.3148403400000000
 -3.4799140099999999 -1.7812646900000000 15.1819654899999996
 -13.9608887199999998 15.6696901299999993  7.5942140199999999
 -14.2283379399999994 13.6726514100000003  0.2228584400000000
 -14.4925866699999997 11.6088079499999992 15.2621655599999997
 -13.9082156200000000  9.5924607000000002  7.4059842299999996
 -13.9498527499999998  7.8270992200000000  0.0380214700000000
 -14.3234411599999998  6.0012688900000004 15.1846994199999994
 -13.9860028599999993  4.5369448700000001  7.7484376700000004
 -14.0567008799999993  2.9398153800000002  0.4021676800000000
 -14.3725334100000008  1.1594664400000001 15.1069956800000007
 -4.7819859400000002  2.7062008199999998  0.3653786500000000
 -4.6095979500000004  1.3622226200000001 14.9210460000000005
 -4.5660257900000003 -0.6156235500000000  7.8424265100000001
 -4.1529573800000001 -2.7353248899999998 -0.3556076200000000
 -15.8056540499999993 14.2649527000000003 14.8793214900000006
 -15.1026321600000006 12.7038287800000003  7.3453643700000004
 -15.2811695800000003 10.6388111900000002 -0.0436747700000000
 -15.5464524799999992  8.5562468400000000 15.1187025500000001
 -15.8704275999999993  7.0099670500000002  7.6034837900000003
 -15.4838493800000006  5.2502997400000000 -0.0072120800000000
 -15.9561062600000003  3.5098370399999999 14.9379594299999994
 -15.6633062299999999  1.7923215800000001  7.8219394500000003
 -6.3882413099999997  3.9585828900000002 15.0354125199999995
 -6.8277628999999997  1.9964518800000000  7.4854303199999999
 -5.7305934000000001  0.3194906400000000  0.3693138500000000
 -6.6499010700000003 -1.9550390200000001 15.1134758799999993
 -17.1547576600000014 15.6396517599999996  7.6685174900000002
 -17.2970561899999993 12.6872018299999993 -0.2632512000000000
 -16.9974930300000011 11.7939650199999999 14.9372340200000000
 -16.5799641300000005 10.1922125999999995  7.9232263300000003
 -16.8154615999999990  8.2576573799999995  0.1178698500000000
 -17.1565932200000013  6.4866360600000004 14.8433618599999999
 -17.4862350999999983  4.5747868699999996  7.9386987900000001
 -17.2963370500000018  2.5108180299999998 -0.0383220300000000
 -7.9420323799999997  4.2025238199999997  7.4038057700000000
 -7.5497750300000002  2.5391959200000001  0.0794907900000000
 -7.7340475499999997  1.1994363800000001 14.9526508800000002
 -7.7908975800000002 -1.2189553300000000  7.3657307999999997
 -7.4489765800000001 -2.9369774799999999 -0.3955984300000000
 -18.6606061799999985 14.5116189700000007 15.4164724900000003
 -18.5119949699999999 12.4215724900000009  7.2350593500000002
 -18.6120314200000010 10.5093356500000006 -0.1625940600000000
 -18.2071639300000001  9.0709463499999998 15.2060189000000001
 -18.6817391300000004  7.3771173299999999  7.4977890900000004
 -18.5785637900000005  5.0311138399999997  0.0364821900000000
 -18.7112137499999989  3.8551400500000002 15.2638859599999996
 -9.2474398799999999  5.4113072000000004 -0.5035522200000000
 -9.4019201799999994  3.4229384700000001 15.4688234900000001
 -9.2366193400000007  1.6961460500000001  7.5130679599999999
 -8.6565338799999996 -0.3243328500000000 -0.2072457200000000
 -9.3446650899999995 -1.7530179600000000 15.5281630600000007
 -8.9426899500000001 -3.7808610499999999  6.9945952699999996
 -20.4423880999999987 12.9261956999999992 -0.1548201100000000
 -19.9062897099999994 12.0752734099999994 15.2550301499999996
 -19.5533792300000009  9.5858540100000003  7.6147019199999999
 -19.9715736600000007  7.8699338000000001 -0.2437281300000000
 -20.2446353499999994  6.4727210599999996 15.4023431100000003
 -19.9798291100000007  4.4872198100000000  7.2611191399999999
 -10.5128766400000000 -3.1029903399999998 -0.1467652900000000
 -11.3477863899999996 -4.4685069999999998 15.2253459400000004
 -21.0605377900000015 12.3319726000000003  7.3377494199999997
 -21.6973856800000000 10.0239612099999995  0.2546948000000000
 -21.8768480099999998  9.4495114499999993 15.3705322100000004
 -21.7741344400000010  7.4054857500000004  7.8919311700000003
 -21.9873829000000001  4.9898124199999998 -0.3527971500000000
 -12.5532400200000005 -1.8213713199999999 14.7839023800000007
 -12.2193703599999992 -3.7519570799999999  7.3210496000000003
 -12.6992144600000003 -5.9993660699999998 -0.1962064500000000
 -23.7781055499999994 12.0990664199999998 15.2875890400000003
 -23.2877455100000006  9.6247686600000009  7.5807290399999996
 -23.4832338800000002  7.9011241800000001 -0.1085752700000000
 -23.2359275099999998  6.5163020999999999 15.2539673300000000
 -13.7152424199999992 -0.9415087000000000  7.5577509599999999
 -13.8210460699999995 -2.6616541699999998 -0.2010825600000000
 -14.7597155400000002 -4.5855072100000003 14.7894589199999995
 -13.8892517699999996 -6.5867248099999998  8.0080040700000001
 -24.8354880499999986 10.4107361300000001  0.0520531400000000
 -25.3549561099999998  8.8766204799999997 15.4206448900000002
 -24.6850787199999999  6.9741004300000000  7.5180739599999997
 -15.6670549999999995  0.0297393000000000 -0.4622701500000000
 -16.2054731600000004 -1.5037093500000001 15.5121118899999999
 -15.8468419199999992 -3.8320110600000001  7.4985324300000000
 -15.2753101200000003 -5.0655517000000003  0.0317437300000000
 -15.9731114200000004 -7.4480636200000001 15.5188346799999994
 -26.0837463700000001 10.1131087700000002  7.6218592500000000
 -26.0113513400000009  7.8319291700000004  0.2070987000000000
 -17.1560582500000010  1.1431075300000000 14.8917818200000003
 -16.5024186700000008 -1.0317601500000000  7.8917244699999998
 -16.7736449199999988 -2.8429304900000001 -0.0809031000000000
 -17.5939997099999985 -4.4999954700000000 15.3966238099999995
 -17.1999647899999992 -6.0144915000000001  7.4351411900000004
 -16.5861586199999991 -8.3155931800000005  0.2722273600000000
 -28.4855052999999998  9.1014977300000002 15.4623314799999996
 -27.2344219900000013  7.3696434499999999  7.2857597099999998
 -9.6652768200000008 15.8658419199999994 -0.0079015200000000
 -9.4541006200000002 14.4334728400000003 14.7654322100000002
 -9.3255199900000001 12.7963522399999992  7.6758026099999999
 -9.0078981200000001 11.1213221600000001 -0.2016477600000000
 -9.5183786900000005  8.3691463099999996 15.3957766800000009
 -9.4967578699999997  6.9935063800000004  7.6430478800000001
 -18.4939164600000012 -8.7296383199999994  7.3117865799999997
 -1.3829066999999999  2.8666771700000000  0.2047834700000000
 -3.6056404199999998  3.4586787700000001 15.0926395099999997
 -4.9775018600000003  4.5538647799999996  7.4122504999999999
 -5.9306348699999996  5.9029597000000003 -0.2934573800000000
 -8.2680731600000001  6.4457705799999996 15.0922199199999998
 -26.5931420199999984  6.3477739399999997 14.8776186700000004
 -26.5332312500000000  4.3598412000000000  7.6734388400000002
 -8.0379357299999992 13.4503215399999991  0.0527974000000000
 -7.9847224199999998 11.6927824699999992 15.4823981300000000
 -7.3465802099999999 10.2517279499999994  7.8520208299999998
 -7.5930970000000002  8.2668243900000000 -0.3714606700000000
 -19.0720583999999995 -7.6409710400000002 15.3937120200000006
 -20.5985299200000007 -6.8060454699999999  7.2285338599999998
 -2.6825921199999998  5.0025633999999997 -0.2433225500000000
 -5.2590721499999997  6.3549430899999999 15.1401507100000003
 -6.3816230100000002  7.1912096600000002  7.6233403099999997
 -24.8330868400000000  4.9350054700000001 -0.3320440500000000
 -25.2357363499999998  3.8785550600000001 15.1369352700000004
 -24.6193951200000001  1.8346972100000001  7.4690840100000004
 -6.1390608300000000 10.2622422499999999 -0.0004486700000000
 -6.4363574600000000  9.1803381500000008 15.2661050700000001
 -18.3247144700000000 -4.9251795700000001 -0.1303023800000000
 -20.4271854899999994 -4.5946821299999998 15.1368983799999999
 -22.0134427899999991 -3.6414193500000001  7.7991185800000000
 -4.1745849499999998  7.8141276800000004 -0.1538029500000000
 -23.1699019799999988  4.5726279099999996  7.6950159700000000
 -23.0935132699999990  2.3579955300000002  0.1669980500000000
 -23.6941288999999990  0.8617273100000000 14.8459175400000003
 -22.8346865100000009 -0.7490898000000000  7.8904998900000001
 -18.6686902799999999 -3.3838197499999998  7.8517666000000004
 -19.7378779900000012 -2.6258649100000002 -0.6221588200000000
 -22.0993418800000008 -1.7492353500000000 15.5587083300000000
 -21.8779866200000015  3.3338228800000000 15.6680505100000005
 -21.4658814199999988  1.9905303599999999  7.7277586899999999
 -21.2782720900000015  0.3378094400000000  0.0961421700000000
 -18.9543227600000002 -2.1274557700000001 15.2420243299999996
 -19.8196507299999993 -0.8576217900000001  7.9458771600000002
 -20.2196080900000013  2.8003623200000001 -0.2919851300000000
 -20.0165675400000005  1.2196772499999999 14.9000603799999993
 -18.6042663200000007 -0.0247708400000000  0.1385500200000000
 -18.5087127900000006  1.9220049100000001  7.6970634599999999
 -0.4487262600000000  0.1678001600000000 17.9631554599999994
 -10.9754206599999993 17.4134843400000001 10.1664301399999992
 -11.0779376500000009 15.0578625299999995  2.2654040400000000
 -10.6197704599999998 13.4009620999999992 17.6628581500000017
 -10.9425001900000005 11.0798456299999994 10.1331888299999999
 -10.6456353900000007  9.8713769399999993  2.2669295500000000
 -11.1029260999999995  7.8190813700000001 17.9789034600000015
 -11.2359486700000009  6.1621685900000003 10.2294517400000000
 -10.2493805400000007  4.1929257900000003  2.1265114700000001
 -10.9925820499999993  2.5011766799999999 17.9628309100000010
 -10.5453091699999995  1.0752756900000000 10.3871591700000003
 -11.0007871399999999 -1.1705369600000000  2.1302772999999999
 -1.4737582000000000  1.1741633600000001  9.9525774600000005
 -1.1597002400000000 -0.9439923400000000  2.6718714900000000
 -12.2147679599999996 16.2931393100000008 17.6786137100000005
 -12.3224885600000000 13.7124405599999992 10.5860377099999994
 -12.4664393100000002 12.9940502400000000  2.7290527800000000
 -12.2483961699999995 10.3520989599999993 17.8463832899999986
 -12.3787345900000005  8.7083966099999994  9.5684322900000005
 -11.9919746400000005  7.2473154800000001  2.4397139299999999
 -12.4898197199999998  5.3532569600000004 17.5172604199999995
 -11.9760035600000005  2.9508626200000001 10.4447539400000000
 -12.1736209500000001  1.9986880100000000  2.6924199799999999
 -12.6427958599999997 -0.1848092600000000 17.7904875699999998
 -2.3460461100000001  1.5496964499999999  2.3524254700000000
 -2.9849954799999998  0.0841754500000000 17.4374820600000007
 -3.1474466300000001 -2.1711852199999999 10.1881061200000005
 -13.7271059599999994 15.4064061799999994  2.4520184600000001
 -13.9807417800000007 13.2498918700000008 17.3859171900000007
 -14.0905250899999999 11.2689512199999999 10.0923021599999991
 -14.1927641999999992  9.7729105799999996  2.7030245000000002
 -13.6084755200000007  7.8643134799999999 17.6282448699999996
 -13.7574081499999998  6.0703103399999998  9.8342783100000002
 -13.7943867200000003  5.1315188300000001  2.8776352599999999
 -13.9581988900000002  2.8919539900000002 17.5497412299999986
 -14.0019348200000007  0.9693775100000001  9.6972428700000002
 -4.8566877300000000  2.7456466700000002 17.9741239600000000
 -4.7551228999999999  0.7546521500000000  9.9691604599999994
 -4.5794073400000004 -1.3203430000000000  3.0194648900000001
 -4.1604653100000002 -2.8580183699999999 17.2018090400000006
 -15.3856255399999995 14.2077994600000004 10.3398375500000004
 -15.2543553400000000 12.8844555500000002  2.6280926199999999
 -15.7561190599999996 10.3763406400000004 17.7156257199999985
 -15.2290429300000003  8.7770321800000008 10.2962825900000006
 -15.2487284600000006  7.4816654399999996  2.9749315300000001
 -15.8836358600000001  5.2377906200000002 17.8671266300000013
 -15.4887979399999995  3.6660635099999999 10.0882704400000005
 -15.6006399200000008  1.8632249900000000  2.8670445400000002
 -6.0456829399999998  3.7557280199999998  9.9257286400000009
 -5.8569210700000003  1.8714550999999999  2.5912343999999998
 -5.8364419200000004 -0.3846335100000000 17.4567773799999983
 -6.3140152599999997 -1.8331434099999999  9.7819288499999999
 -16.7726589600000011 14.9728651100000008  2.3578663600000000
 -16.8290829600000009 13.4470245399999992 18.1544439500000010
 -16.6292949000000014 12.1594917000000002 10.0852895100000008
 -16.3773780199999983 10.4595976299999993  2.1879551300000002
 -16.8121971099999996  7.9869081399999997 17.8607407800000004
 -17.2827713600000017  6.3170910899999999 10.2975107500000007
 -16.8738006200000008  4.2301699499999996  2.1432611499999998
 -17.3749167299999989  2.6857976699999999 17.4095484800000015
 -7.5442572200000004  4.5512265999999997  2.3962882400000001
 -7.8887380800000004  2.2061444500000000 17.7414299699999987
 -7.9567739399999997  0.6492337700000000  9.9868264900000003
 -7.5841105500000001 -0.9429283899999999  2.3221422500000002
 -7.6695875800000000 -2.5482494099999999 17.8208761500000001
 -18.5671836100000007 14.1730581600000001  9.5861844099999995
 -18.6197416099999984 12.5195080500000007  2.6229520700000002
 -18.9163385999999996 10.8179723600000006 17.9911484799999997
 -18.3128082899999995  9.2036522099999996 10.4450997200000000
 -18.0918870799999993  7.1221523600000003  2.6762899099999999
 -18.4263002500000006  4.8135867799999996 17.4932231800000011
 -18.8097547300000016  3.9831672100000000  9.8039235300000005
 -9.5080535099999999  5.1357091099999996 17.5207564900000001
 -9.1967188899999996  3.6429667700000001 10.1018202800000001
 -8.9939893600000005  1.8337203600000000  2.0455503700000000
 -8.5646562900000003  0.0251919800000000 17.8700402700000005
 -9.1525036800000006 -2.2071357100000002  9.5269103899999994
 -9.1410053300000005 -3.5814360999999999  2.2512083000000001
 -20.2264458699999992 13.5274560400000006 17.8494853800000008
 -19.9743002800000014 11.4303097200000003  9.6551821400000009
 -20.0530107000000015  9.8830542900000005  2.7513788899999998
 -19.8852409500000000  7.7965507299999999 17.6605894100000000
 -19.7478573100000006  6.3317400700000004 10.0152746599999993
 -20.0637750799999992  4.5439008500000000  2.3231711599999998
 -11.1347201099999999 -2.9369200800000002 17.6163313899999991
 -11.0358845999999993 -4.5684787199999999  9.7516659699999995
 -21.6738935099999992 12.2822284600000007  2.6790266800000002
 -21.8036745600000010 11.0226442400000000 17.7342812000000016
 -21.3946492200000016  9.0283446299999994 10.6661569699999994
 -21.5118232700000007  6.7058105899999996  2.2411057900000002
 -21.5238170000000011  5.5176215300000004 17.9093068600000009
 -12.2057723899999999 -1.4337683900000000 10.1380455499999993
 -12.3344185700000004 -3.6029722000000000  2.3297526099999999
 -12.4030297899999997 -5.5165211599999999 17.3341596600000010
 -23.0255264100000012 11.3553594800000006  9.9766912800000007
 -23.1000338700000007  9.5519812999999996  2.6376383900000002
 -23.3575477300000003  7.9390758699999999 17.9105476000000010
 -23.4226677899999984  6.3144259299999996 10.6090783799999997
 -13.7885024699999992 -0.5834459600000000  2.1893868300000001
 -14.4773619100000008 -2.5849336300000001 17.4428362999999997
 -14.2878830299999997 -4.0784009799999996 10.0113167900000004
 -14.0501302799999994 -6.6039398499999997  2.4902537100000002
 -24.9946885799999983 10.4279096599999992 17.8406362200000004
 -25.2154109499999990  9.0325733499999998  9.8655711999999998
 -24.7114434000000003  7.4206450400000001  2.6422941400000002
 -15.6904841400000006  0.0409474800000000 17.6946250599999999
 -15.4825534900000008 -1.5391374400000000 10.4402791700000002
 -15.2170281599999999 -3.9553331100000002  2.6218356500000000
 -15.4868798800000000 -5.3797272500000002 17.8955841599999985
 -15.6193089900000004 -6.9948495700000004 10.1174281100000005
 -26.0691749399999999  9.8760258899999993  2.5303402699999999
 -26.7871398800000016  7.8923918799999999 17.6051539800000008
 -17.0587955600000001  1.2909853600000001 10.4122394200000006
 -16.7935293299999984 -0.4875558000000000  2.6302339099999998
 -17.9213896099999985 -2.6163932999999999 17.9369509100000002
 -17.4127509499999995 -4.7105279500000004 10.6278680600000008
 -17.3526397000000010 -6.3296305100000003  2.4464918800000000
 -17.5114750299999997 -8.2390109999999996 18.4237880800000013
 -28.0472510399999990  9.4904583700000007 10.0479141700000003
 -27.9911679699999993  7.2280158300000004  2.5069429200000002
 -9.4980946199999998 16.1988188099999988 17.6369587599999988
 -9.7472017199999996 14.6061790800000004 10.3297511800000006
 -9.5452996799999994 12.8726742200000004  2.5956665299999999
 -9.4898692199999992 10.1545744800000008 17.6868835599999983
 -9.3897411700000006  8.8307213099999995  9.9303871699999995
 -8.7370561299999991  7.2312583200000002  2.2703699199999998
 -18.3501905900000004 -9.0878043599999998  2.9736198100000002
 -1.5799921299999999  2.8538991100000000 18.0839328200000011
 -3.3320386200000001  3.5374226000000002  9.9992074599999992
 -4.8441209699999996  4.8758860200000003  2.5494591899999999
 -6.3680346400000003  5.4740385399999996 17.7733094999999999
 -7.8654571700000000  6.2109794899999997 10.3575238200000008
 -26.3020344699999988  6.4033105299999997 10.2316818299999994
 -26.7557654800000009  4.4781757300000002  2.4600882999999998
 -7.9062662399999999 13.3611160899999994 17.6107695100000008
 -7.7797874499999997 11.9325659099999992 10.0670228999999996
 -7.5340803899999997  9.8450925999999992  2.5383841700000001
 -8.1291086200000002  7.8110822700000000 17.7126569899999993
 -18.8670003500000014 -6.8723571899999998  9.9435491999999996
 -20.2889230599999983 -6.0008880500000004  1.8384625100000000
 -3.3746371499999999  5.3829256299999999 17.4508445300000012
 -4.9323478100000004  6.2575831900000001 10.3847507300000004
 -6.0199609900000004  7.1677472900000003  2.9807784499999999
 -24.5590659000000002  5.2549511200000003 17.7990368900000000
 -24.7854886900000011  3.9023481499999999 10.0273252100000008
 -24.8465474300000011  1.7390328200000000  2.2804341600000000
 -5.9370538200000000 10.3396415099999999 17.4696198799999998
 -6.2930884200000001  9.1928295400000000 10.1548807799999992
 -18.5538728699999993 -5.4419288600000000 18.3727452999999983
 -20.5909579399999991 -4.7171197899999999  9.7317171800000004
 -21.2089191100000001 -3.6475946700000001  2.3166209100000001
 -4.8209104399999996  7.8698105299999996 17.8763263999999999
 -23.2248466399999991  4.4451537900000000  2.2413952500000001
 -23.5613673100000014  2.5800001699999999 17.2797987500000012
 -22.7394993700000008  1.2476355900000000 10.3590443800000003
 -22.7336712500000004 -1.3372018200000000  2.7377961900000001
 -18.3931726399999995 -2.9606559300000002  2.4793129000000000
 -20.7940661599999999 -2.6925599400000002 17.8061455100000003
 -21.8687789099999996 -1.7821002399999999 10.3117619600000001
 -21.8878252700000004  4.0229511200000001  9.8990146600000006
 -21.6783634300000010  1.6150499199999999  2.9164545799999999
 -21.4195111099999984  0.0725388800000000 17.4761933599999999
 -18.4273021999999997 -2.0457086699999998 10.6102650999999994
 -20.0582659399999983 -0.9745392600000000  2.6815052599999998
 -20.4051064599999989  2.5178394499999999 17.4888034800000014
 -19.6785434700000010  0.5815554700000000 10.0214737899999999
 -18.3871871899999988 -0.0269056200000000 17.2736370299999997
 -18.3925954099999984  2.1411793499999998  2.5852808100000000
  0.3837851200000000  0.2166249600000000  4.7422129000000002
 -10.6841891699999998 17.2431830999999995 20.3880457100000001
 -11.5453559400000003 15.3490557800000005 12.6937608799999992
 -10.3165942299999998 14.0173269299999994  5.6338089199999999
 -10.7430019500000000 12.2054156500000008 20.3167928899999986
 -11.0199308800000004  9.3591112100000000 12.5384435100000005
 -10.5857617200000007  8.1311394099999994  4.9918568800000003
 -10.7687577900000004  6.1848892299999996 20.0590429099999987
 -10.9056741099999996  4.5932020199999997 12.5857142500000005
 -10.6644525500000000  2.9744290800000002  5.0073997099999996
 -11.0862132399999993  0.5411927399999999 20.0971911100000007
 -10.8320972199999996 -0.8110225700000000 12.6141699400000000
 -1.4773544900000000  0.6739303800000001 20.2881388700000009
 -1.4228926700000000 -0.6178196500000001 13.0490626499999998
 -12.3293920700000008 16.1250430700000003  5.1257223900000000
 -12.5238876500000007 14.4433716299999997 20.2050773600000007
 -12.5046038100000008 12.3810913599999992 12.8871274600000003
 -12.2328892600000003 10.7187251499999991  5.1140174199999997
 -12.2506673900000003  9.0631338600000007 20.7668821399999999
 -12.6959367200000006  7.2880218399999999 12.6446008899999995
 -12.3196584199999997  5.1776363500000002  4.7446990099999997
 -12.3238675700000009  3.1344282500000000 20.4506612799999985
 -12.8775182600000004  1.2778101200000000 12.9790138800000001
 -12.1341638799999991  0.4640566200000000  4.8946514600000004
 -3.4859050800000002  1.5257772900000000 12.5336834600000007
 -2.5923321100000001  0.2587999200000000  4.6051324400000002
 -3.2574649899999999 -1.9605132400000000 19.7304488599999992
 -14.6524446000000008 15.2301215299999999 13.0576582299999995
 -13.4924629700000001 13.2231839999999998  5.2508412599999996
 -13.4162652599999994 11.5266467899999991 20.0654277699999994
 -13.5011742500000000  9.9031126399999998 12.7529457700000002
 -14.0801551200000006  7.9398468700000002  5.0480455500000003
 -13.7809183999999991  6.2606084099999997 20.1349375299999984
 -13.7139028199999995  4.2003659899999999 12.6392300199999994
 -13.6312943499999992  2.9218616599999998  5.0730461599999996
 -14.0275985300000006  0.9660594000000000 20.4629492999999982
 -4.3899731900000001  2.7034553300000002  5.2478661600000001
 -4.3721880799999999  1.0168392799999999 20.5124724799999996
 -5.0007529399999999 -1.1643813700000001 12.5857772200000007
 -4.2982027699999996 -2.7118680099999999  5.4749042799999996
 -15.5817051099999997 14.2226764800000005 20.4661422699999989
 -15.6135055800000000 12.8029158800000005 12.6723381499999999
 -15.4547622800000006 10.9073826900000004  5.0039611800000001
 -14.9544553699999998  9.2705163600000002 19.8989880300000017
 -15.9161760700000006  6.9042339500000001 11.9888276400000002
 -15.6901281099999999  5.2843172500000000  5.2583915299999999
 -15.8766079300000005  3.5214781199999998 20.3369600999999989
 -15.7722244000000007  1.6052559200000001 12.5462573499999994
 -6.2996146599999996  3.6552085299999999 20.6120065799999992
 -5.7834309399999997  1.9799944300000001 12.2146347300000002
 -6.0078286099999998  0.0340837300000000  5.3424170100000001
 -6.1335895400000000 -1.7011147600000001 20.0791116000000009
 -17.2542547100000014 15.2707461400000000 12.4115465799999996
 -17.5230245800000013 13.5340990100000003  5.1170923300000002
 -16.7494400600000013 11.1400835100000002 20.4024004999999988
 -16.7905085599999992  9.9187455700000005 12.4265937399999995
 -17.0747717799999990  8.4352207099999994  5.2449379900000004
 -16.7529101199999992  6.3241005899999996 20.5044314199999995
 -17.4987047699999998  4.3822785700000004 12.4680411899999992
 -17.1686650400000005  2.7445632400000002  5.0597051700000000
 -8.2016043199999995  4.9071134499999998 12.5668303800000007
 -7.8050136700000001  2.6823775599999999  4.8616162200000002
 -7.7269527800000004  0.9187645900000000 20.1582495900000005
 -8.2106307399999992 -0.4904232300000000 12.3781705599999992
 -7.5186935300000002 -2.4966495700000002  4.3158957999999998
 -18.3511388500000017 14.2823543799999992 20.0109972599999999
 -18.8780642500000013 12.8928223200000005 12.5915323499999996
 -18.4050322900000012 10.8461780300000008  5.3884993000000003
 -18.2012187599999997  8.5935328400000000 20.2566107200000012
 -19.1822091300000004  7.2176655800000002 12.6978522500000004
 -18.6688464699999983  5.9380019199999996  4.8154102999999999
 -18.5926195099999987  3.3926197700000000 20.1633371699999984
 -9.4334687899999992  5.7904900399999999  4.8551961400000003
 -9.3794608400000001  3.2781701999999999 20.3280353100000006
 -9.3614386300000003  1.8942327800000001 12.8385308100000000
 -9.3856411299999998 -0.0458955400000000  4.5421241500000002
 -9.3450980000000001 -1.7884797600000000 20.2650398500000009
 -9.6808537099999992 -3.0891060000000001 12.9516805900000005
 -20.2606201100000014 13.5781869499999992  4.9883197199999998
 -20.0568951700000007 11.4004951600000002 20.7559993700000014
 -19.5683575199999993 10.3640517800000005 12.8246940899999995
 -19.9631905900000000  7.8264507999999999  5.2206288799999996
 -19.9112917600000010  5.9952864999999997 20.3963293700000001
 -20.5318743899999987  4.0536157499999996 12.9625743100000008
 -11.0898159599999993 -2.7480066299999999  4.8524033500000003
 -10.6307097499999994 -4.4558771999999998 20.1821917800000001
 -21.6067889400000013 12.6845013600000005 12.6419636200000003
 -21.3525038699999996 10.7898821500000004  5.6198478800000000
 -20.9315527199999991  8.7834643499999991 20.1193827200000008
 -21.7995406400000000  7.2436743200000002 12.6959759600000002
 -21.9913097600000000  5.7296922199999996  5.4033128100000001
 -12.4462261200000004 -1.9605311100000000 20.1044491799999996
 -12.5357907199999996 -3.6991114199999999 12.4550570599999997
 -12.7664092599999996 -5.4956871899999999  5.1890874800000004
 -23.3404873299999984 11.5080422500000008 20.1657656400000000
 -23.3704260999999995  9.9279480899999992 12.4388489199999999
 -22.9035936699999993  8.0951820199999993  4.9699390200000000
 -22.9285812000000000  6.0898733600000003 19.6741568499999993
 -13.9960833699999991 -1.1440337300000001 12.9434324699999994
 -13.7993562900000004 -2.3181732300000002  4.8770970699999996
 -13.9493409400000008 -4.3460716899999996 20.0909287499999998
 -14.4111299200000005 -6.0843569500000001 12.2923827200000009
 -24.4306880799999995 10.9455750399999996  5.1753645600000002
 -24.2828138100000004  8.8461039600000007 20.2493971100000003
 -25.1045222300000006  7.5180481400000003 12.8841957800000007
 -15.1684558000000003  0.3086374200000000  5.2616637400000004
 -15.5334784100000007 -1.9609255299999999 19.9951464899999998
 -15.9619805199999991 -3.5084830000000000 12.6035965099999991
 -15.5309973299999999 -5.2757293599999997  5.0764385900000004
 -14.8892759899999998 -7.4121255399999999 20.4891711799999996
 -26.2186818799999983  9.9219374600000005 12.8290418600000002
 -26.3097420200000016  8.2186700100000003  4.9459198600000001
 -17.4053229800000011  0.6919523500000000 20.4143484700000002
 -17.2562811600000003 -1.2427701300000000 12.6575262199999994
 -16.9345757399999997 -2.5409718500000000  5.1872161999999999
 -16.7994835199999990 -4.6519294100000002 20.1863669500000000
 -17.5420035200000015 -6.4841409499999996 12.6808064799999993
 -16.4696109700000015 -8.1496159800000001  5.1603442800000003
 -27.5226736099999982  8.1643468600000002 20.5418669999999999
 -28.1543109099999995  7.3811628599999999 12.7886988400000003
 -9.1061786100000006 16.1204678100000010  5.0397739399999999
 -9.2486925600000003 14.2709509899999993 20.1550964099999987
 -9.7353825399999998 12.5959161500000008 12.3046120499999994
 -9.0992502500000008 11.1686998699999993  4.8686075999999998
 -9.5521336800000007  9.2708413099999998 20.0649843499999996
 -9.5822750800000005  7.1525953900000001 12.5189769900000005
 -18.5027592799999994 -9.0909378600000004 12.6132763299999997
 -1.0249640200000001  2.9925189699999999  4.5071519300000000
 -2.8825676100000002  3.6350628299999999 20.3522356799999997
 -4.8026199399999996  4.3528431100000002 12.5410250199999993
 -6.5635261800000002  5.1883308899999996  5.2526737700000004
 -7.4914729199999996  6.2526923700000001 20.1415812800000005
 -25.9415182500000014  6.0801305100000000 20.1111299599999995
 -26.5222958999999996  4.4847528099999998 12.6155316099999997
 -7.1525425800000004 13.3668504200000005  5.1036723899999998
 -7.8626791599999999 11.1080340700000004 19.7402563300000011
 -8.0946347900000006 10.0489446200000003 13.0400768700000000
 -7.4057613699999996  8.2966498200000007  5.4313605500000000
 -18.4110183099999993 -7.3479196599999996 20.7341936900000015
 -20.6479242899999988 -6.3880711999999997 12.5975598299999998
 -3.2725905200000001  5.3490791900000003  5.1352911099999998
 -4.4620943100000003  5.9877442500000004 20.2574880700000008
 -6.4655530399999996  7.4249198099999996 13.0156450699999997
 -25.0418356899999992  5.3457888499999999  5.1999510400000002
 -24.8105259499999988  3.3575306700000001 20.3082626099999999
 -25.1893939300000014  2.0355246800000000 12.4136391800000006