Li                                      
   1.00000000000000     
    20.2271999999999998    0.0000000000000000    0.0000000000000000
     0.0000000000000000   20.2271999999999998    0.0000000000000000
     0.0000000000000000    0.0000000000000000   20.2271999999999998
   Li
   432
Direct
  0.9926147138506565  0.0048237289392503  0.0197983215670021
  0.9073911302602440  0.0906430015029258  0.0901544623081776
  0.8417626423825340  0.1702046294099020  0.1644010658914752
  0.7711552552997958  0.2572774862561289  0.2591988757712400
  0.6732707468161649  0.3470183713020063  0.3340766057585824
  0.5736454393094448  0.4235096869561801  0.4169958115804491
  0.4906040405987966  0.4962979181498213  0.5052685225834495
  0.3955586447951305  0.5973625716856503  0.5840711116714132
  0.3245291098125307  0.6884327484772967  0.6654563879330837
  0.2455669247350087  0.7565044469822837  0.7632865216144609
  0.1631094219664604  0.8419733141512395  0.8409362754113303
  0.0743964938300934  0.9239780078310389  0.9164311313478848
  0.0845094392698940  0.9121261158242362  0.0980057872567599
  0.9892966510441354  0.9958820128342012  0.1644118395032450
  0.9124900465709516  0.0745092296511629  0.2613497814823589
  0.8366187658202833  0.1661048879726295  0.3317911900806862
  0.7452517090847977  0.2673797970060150  0.4258009180707134
  0.6676287978563522  0.3355499001344739  0.5001194015978498
  0.5810965852910925  0.4138161080129734  0.5959150658519192
  0.4951090635382087  0.5022344570677078  0.6532184350775196
  0.4025860994106978  0.5851998269656704  0.7367415939922495
  0.3433495901558317  0.6601456588158499  0.8361996643133978
  0.2464230511390610  0.7455449562964702  0.9178551608724916
  0.1635068180469830  0.8420919400609108  0.9929132865646224
  0.1616007865646267  0.8265653496282255  0.1748726857894312
  0.0993005487660170  0.9224288690476214  0.2431478588237610
  0.9960955302760652  0.0080944193956682  0.3238240720416101
  0.9164043392066148  0.0808160175407338  0.4202163428452792
  0.8445045992524882  0.1735590541449170  0.4928946962505947
  0.7422677879291228  0.2396590061896831  0.5827815159784819
  0.6729540336774278  0.3418449686560692  0.6687526736275942
  0.5736684355719035  0.4065985984219296  0.7353623368533491
  0.5033880878223371  0.5083189042477443  0.8255614212545481
  0.4204340437628531  0.5706545191623178  0.9098530043703548
  0.3323192211477632  0.6719660892263875  0.0123852688459110
  0.2312510960488865  0.7369700502293952  0.0770940258661597
  0.2482725963059664  0.7418757722274947  0.2583306794810980
  0.1677954467252007  0.8314464246163595  0.3286596207087484
  0.0824018366358175  0.9212293659033364  0.3921862724450236
  0.9956935952578689  0.0008832794454960  0.4833153694035772
  0.9059169494542019  0.0759558095040376  0.5753242233230509
  0.8473105763526334  0.1763488831869964  0.6580675184899576
  0.7583566820914385  0.2457256367663376  0.7489648473342854
  0.6639791414530904  0.3385216105046638  0.8142212659191586
  0.5839670878816676  0.4079391220732447  0.9102685309879774
  0.5134346825067269  0.4994509724529337  0.0021063661801932
  0.4301518460291121  0.5693267476467341  0.0755130631031449
  0.3452346815179581  0.6663172366911851  0.1679132781600998
  0.3454991476823253  0.6634332072654630  0.3284522687272613
  0.2620889529939916  0.7458603079022339  0.4148254993276410
  0.1695447372844470  0.8420398710647063  0.4908936748536590
  0.0859857498813454  0.9116004835073568  0.5838413018114252
  0.0091042067117542  0.0041247241338382  0.6756000271911091
  0.9187308628974833  0.0908184677068533  0.7423313493711419
  0.8274286851368444  0.1700883364973862  0.8356832379172587
  0.7431449745886738  0.2499385802286014  0.9135717444826739
  0.6596813928769194  0.3295692255972185  0.9892969758542947
  0.5867074078468590  0.4063212950877997  0.0878402759650356
  0.5073741071428586  0.4940840076728392  0.1717497755497561
  0.4226415771831995  0.5908010060710325  0.2525516502531246
  0.4284106510045902  0.5953002491694335  0.4154330189052331
  0.3289394617149171  0.6687853261944312  0.5009568926989374
  0.2324763279148883  0.7471929827163422  0.5851644597373848
  0.1923461655592504  0.8614733868256579  0.6886152497626981
  0.0714326906343956  0.9177703345000765  0.7598629805410511
  0.9976558188973286  0.0092499713257368  0.8350626839107704
  0.9110244591441230  0.0616415638348329  0.9349008671491887
  0.8300278619878156  0.1600175802879278  0.0077855971167509
  0.7447287330920744  0.2536090032233815  0.0574281210449286
  0.6640648463455179  0.3286603088909956  0.1746538759689926
  0.5956997127630146  0.4150000444945405  0.2480645156027492
  0.4965776978523948  0.5069924438380013  0.3208965566168303
  0.0724012117346930  0.0881029178531847  0.9226749436402457
  0.9780947585429516  0.1652277626166736  0.0008547470732481
  0.9062725557664919  0.2534119062450557  0.0743649333570673
  0.8320066954398015  0.3364122177068509  0.1597651607736097
  0.7624070800704033  0.4082744131664313  0.2410957171531436
  0.6762264109713669  0.4884863703330140  0.3345864504231955
  0.5919083689289693  0.5741334905473821  0.4161983769379844
  0.5106384106549626  0.6642009427899040  0.5162689022702125
  0.4125659923271598  0.7613749787414932  0.5805264470613807
  0.3305463736948298  0.8359262062964703  0.6811432585825017
  0.2567015963652892  0.9267792037454541  0.7704615834124340
  0.1692514035556059  0.0025885772623013  0.8330458976032276
  0.1731633636885022  0.0084391467924405  0.9975214325264972
  0.0993466812015527  0.0881261786109775  0.0946554698623601
  0.9875106351843073  0.1614999594605280  0.1678165247785159
  0.9332352752728994  0.2531162548449615  0.2426464176949850
  0.8421421526459412  0.3417030493592819  0.3359410269340302
  0.7691539788008228  0.4067973674062628  0.4205214532906183
  0.6694374915954739  0.4909887498022485  0.5121320143173520
  0.5776248798647359  0.5610453745451665  0.5674119967172899
  0.4980832873556409  0.6591581340966641  0.6668389584322085
  0.4230894542991592  0.7536856416112983  0.7642156027527278
  0.3385548316128748  0.8259439304500873  0.8338021204121162
  0.2633277853583280  0.9147201584994491  0.9076641804105350
  0.2547922203765225  0.9225144889060246  0.0786870209420982
  0.1795348026419887  0.9972400129528580  0.1639233977021064
  0.0923961700086977  0.0975072699137769  0.2306190357538398
  0.0068093107301053  0.1505649318739088  0.3414090160773640
  0.9176415727337428  0.2592576738253456  0.4131703438933698
  0.8360645022543878  0.3386586096938800  0.5135574340492042
  0.7509595035397894  0.4128126720455612  0.5950762463415629
  0.6747070578231273  0.4969517085904158  0.6593589651558318
  0.5817961428175948  0.5750472828666346  0.7370284631585164
  0.5044927859515909  0.6574109718596759  0.8222126547421311
  0.4384385747903821  0.7387937811461782  0.9233374658875206
  0.3443505428334106  0.8264524012221202  0.0020283138546091
  0.3230716198979593  0.8159561773255817  0.1735172772306584
  0.2543282045957937  0.9182862408044628  0.2320030468873568
  0.1746758528120580  0.0052009833293809  0.3279237487146034
  0.0856776637399150  0.0750081261865176  0.4059222685295083
  0.9976522647721850  0.1587046397919636  0.5040143969506374
  0.9202502481806647  0.2359284606866012  0.5768125954160723
  0.8269091856510045  0.3184575225439019  0.6683715328864110
  0.7692696908123722  0.4259841021001449  0.7494950897800976
  0.6669482207127047  0.4940227367109600  0.8224929604690701
  0.5761764777131759  0.5755048044217688  0.9277396505695279
  0.4902932482004445  0.6736252516413543  0.0005114034567342
  0.4222130324513529  0.7446157258542954  0.0988604354532541
  0.4203461794019958  0.7425590373358659  0.2543895378500238
  0.3478714068185411  0.8312873101566183  0.3331550931419045
  0.2558695800704029  0.9276288903061243  0.4053944322496434
  0.1719716638981197  0.0103500143371278  0.4909278545720639
  0.0947933075265013  0.0861829482083536  0.5688216614261989
  0.9880880240468315  0.1725034700798957  0.6692742109634580
  0.9011217360781529  0.2535100908677421  0.7570254375296628
  0.8269238307823130  0.3270446428571461  0.8362357553195707
  0.7522767249050801  0.4167027220772042  0.9023955001186508
  0.6699537232044008  0.4943349845752252  0.0047532683713030
  0.5854708753559592  0.5770912899462104  0.0881748586062301
  0.4965153001898415  0.6593349039906684  0.1698724934741307
  0.5085177968280306  0.6719906462585001  0.3402364835469101
  0.4155988693442509  0.7509985652982110  0.4355473614736596
  0.3176451065891470  0.8453803759294445  0.5067948900490435
  0.2589387814428079  0.9282397618058837  0.5836079981411189
  0.1604639712861911  0.9962758384749222  0.6720655305726950
  0.0780693704516722  0.1005171091401706  0.7495553937272561
  0.9828557650094893  0.1741262982518563  0.8435025554698612
  0.9102412350696056  0.2372111078152201  0.9178730066445198
  0.8345291913858546  0.3266765607696556  0.9794248259768992
  0.7501241254350575  0.3943872399541206  0.0626660462149999
  0.6888475681260857  0.4860548602871404  0.1552779405948428
  0.5940485781521900  0.5712653876957745  0.2461052884235073
  0.1702198040262601  0.1743190629449458  0.8464768727258374
  0.0960188454160757  0.2422861918604653  0.9310441672599268
  0.9844965205268181  0.3408527833807966  0.9917046234772968
  0.9022956924339525  0.4136307175486493  0.0682928284686000
  0.8126382811264037  0.4916430178175943  0.1594652863470998
  0.7421025080090189  0.5877764327242545  0.2428419692295520
  0.6771065367426061  0.6589590674932779  0.3353141121855714
  0.5853588756723624  0.7481081617821559  0.4137320276657164
  0.5032288423508930  0.8269458882099343  0.5049618474133837
  0.4173507321824061  0.9134259121381092  0.5988358626008576
  0.3452505225636742  0.0131130131703827  0.6706733522187918
  0.2393775796946684  0.0893145047263104  0.7423679599746862
  0.2530837599865521  0.0842491303788933  0.9185799917932300
  0.1781481930272122  0.1584795058139505  0.9958761192849224
  0.0619317602040823  0.2407924784448667  0.0749321853741520
  0.9995331187707635  0.3500727421491874  0.1613055455030832
  0.9097828962980543  0.4141170888704337  0.2602627155513346
  0.8289909859001767  0.5015310156620814  0.3375686743592752
  0.7451545053195687  0.5684897247271010  0.4213702356233213
  0.6755027616279037  0.6664430998853064  0.5071762967687050
  0.5818212629528574  0.7492171788482835  0.5914982202183197
  0.5155334969743706  0.8367976551376373  0.6756988248497038
  0.4061379563162504  0.9243270971760822  0.7577029900332235
  0.3472492149185271  0.0101777645942107  0.8370384205426333
  0.3483868404920116  0.9977924354334746  0.9862632475083046
  0.2591860499723140  0.0868690224054731  0.0796522964127533
  0.1621873620669163  0.1815214656502135  0.1419061086062356
  0.0800946512616676  0.2436323238016129  0.2357344501463388
  0.9934830732874573  0.3367046719269098  0.3308270586141404
  0.9201498877748762  0.4214128124505621  0.4268013229710519
  0.8270872750553693  0.5034580881189683  0.5014229626443623
  0.7461750212585017  0.5677732533420325  0.5851381417101749
  0.6622366096147729  0.6657899190199359  0.6677951283420356
  0.5832467736513181  0.7483061545839291  0.7379601056992584
  0.5134601585983205  0.8286579615567149  0.8228069149462129
  0.4216915786663478  0.8907368345594051  0.9014403402349345
  0.4191983003084943  0.9067377654841025  0.0974627017085936
  0.3435672090056983  0.0064549374110143  0.1662053437944948
  0.2528418965551325  0.0883128253045413  0.2487617900648615
  0.1655280201906351  0.1570556710765700  0.3270692953053285
  0.0889525915598810  0.2467715798528687  0.4021502036861264
  0.0057416152507486  0.3297130967212496  0.5075855145546626
  0.9026569327440299  0.4094803403338076  0.5851799680628034
  0.8382441939566547  0.4974740497943344  0.6606979310037957
  0.7487062742248085  0.5777342459658286  0.7292919548924246
  0.6675220193600708  0.6576513664768200  0.8405690540460355
  0.5706657436521141  0.7445668228919473  0.8988554555252364
  0.5048155290895409  0.8334610826016444  0.0125354127115997
  0.4963756362719494  0.8323436155276056  0.1838865171650070
  0.4223109303314345  0.9186079847927573  0.2428902759650384
  0.3359700793980380  0.9910308055489665  0.3230141383879115
  0.2717591678531903  0.0762125029662997  0.4102561526063937
  0.1870124367188737  0.1616663561936420  0.4991824014198727
  0.0816646733111881  0.2369822002056665  0.5875158286861222
  0.0105962931102681  0.3396048073880706  0.6647892931300419
  0.9181033454951759  0.4158678245135263  0.7528401454477134
  0.8368165475201721  0.5093919944431278  0.8214041483744694
  0.7536220010678676  0.5818706439843382  0.9237703641631043
  0.6474259783855416  0.6790791824869515  0.0056905221681660
  0.5703567888783425  0.7406837614697039  0.0965420092746427
  0.5790165425763334  0.7294387117346943  0.2610719812925169
  0.5042183910773588  0.8412103261944281  0.3313886929481100
  0.4270252373042212  0.9124207665915236  0.4265411757435515
  0.3308009086774248  0.0022230921729189  0.4977012043189362
  0.2600701332858719  0.0749730847571612  0.5776816084282572
  0.1689188004271500  0.1641369354137012  0.6714543322852364
  0.0858273166824901  0.2418727792279682  0.7606879602713192
  0.0012167037454489  0.3249945815535540  0.8318856203527929
  0.9155254755972138  0.4231865043110261  0.9069865666033863
  0.8208716045720621  0.4961624006288545  0.9909809830327490
  0.7448752669672487  0.5911555825818695  0.0825065357538364
  0.6556414486434079  0.6737474529346628  0.1758829170621752
  0.2466303521990199  0.2430147613114997  0.7593020615804491
  0.1586441573722510  0.3228662795641526  0.8313057892342997
  0.0895706217370673  0.4272481648473345  0.9096183559761144
  0.9846666004192386  0.5075728474529342  0.0032136682289163
  0.9076496989202667  0.5805455861414330  0.0846230644874240
  0.8376451669039682  0.6728791997903798  0.1600922455900999
  0.7504774699414654  0.7411517184780863  0.2575018035120991
  0.6677543011390625  0.8244784166864392  0.3244486829615596
  0.5911287617663348  0.9268546956573331  0.4156980318580921
  0.5066433782233801  0.0041705035793385  0.4919296303986727
  0.4187813236631897  0.0787300011865213  0.5756628880912800
  0.3311751359555473  0.1621363935690567  0.6399490685809184
  0.3352722517204541  0.1655618998180657  0.8417222433159282
  0.2586106935215966  0.2582426984456561  0.9138087782787565
  0.1519299784448691  0.3384903590215131  0.0180421857696587
  0.0796489222433152  0.4244117257949682  0.0810657036070239
  0.9935944851487122  0.5002781927305833  0.1721734486236386
  0.9049316366081328  0.5922049077479841  0.2399753500237338
  0.8283102228682182  0.6473680222670453  0.3431688078429076
  0.7468688918881483  0.7604216525272918  0.4187782130003157
  0.6641318061817785  0.8240479038126907  0.5036879528555573
  0.5950161228444841  0.9186929238846702  0.5804073589028604
  0.4972079140958741  0.0048064947199791  0.6629989029623502
  0.4401065095514980  0.0940361478603080  0.7513552206929290
  0.4179001428769169  0.0819053566484769  0.9178935502689427
  0.3279813543149785  0.1469462545483324  0.0019790079694673
  0.2408489123556379  0.2489143445459590  0.0733059583135613
  0.1562271050862236  0.3308978034527783  0.1653852653852255
  0.0834731050268971  0.4248858541963330  0.2469344590452494
  0.9947320835310833  0.5041955915796521  0.3277581113550099
  0.9221665845989548  0.5703436728761275  0.4278453310393928
  0.8271019864341085  0.6815078038482838  0.5076802572773289
  0.7490711981885809  0.7444474010243667  0.5966168060828991
  0.6826083545918351  0.8426711878065163  0.6638747063360242
  0.5857349405750654  0.9350736251186547  0.7510844837644370
  0.4918609797698181  0.9898989375692153  0.8464087901439612
  0.4819974647998748  0.0007703364776148  0.0080977203963002
  0.4199161203725694  0.0745149066603403  0.0949734135223892
  0.3448077608368934  0.1747074429481117  0.1500119270091744
  0.2473792146218941  0.2671885065654180  0.2501762977574771
  0.1519190065851888  0.3418649941662721  0.3346395348837206
  0.0694476862838158  0.4357464256051244  0.4078283153377598
  0.9866117930311660  0.4926324721167532  0.5094199765662069
  0.9130588469981049  0.5936708036703067  0.5893574612403114
  0.8037278768193303  0.6709577361176997  0.6703277339424147
  0.7364553477495619  0.7433695187668121  0.7558796654999185
  0.6684876987422896  0.8454575976902419  0.8250182383127651
  0.5878892511074199  0.9220418579932002  0.9135077909943021
  0.5850780983032777  0.9110646154682769  0.0924482212070856
  0.5048792764198708  0.0121301672994747  0.1633286796986226
  0.4261387117346942  0.0771572906778957  0.2501045957918038
  0.3350235717252019  0.1600904821230813  0.3232197353069139
  0.2456092939210563  0.2530677869403561  0.4107195049240602
  0.1603703725676340  0.3530850206652403  0.4870807353464670
  0.1056991842667330  0.4240567310354351  0.5810530394716054
  0.0138775579417825  0.5071991768509747  0.6658073870827366
  0.9142856183752599  0.5823939714839454  0.7386464335152638
  0.8219292719704185  0.6664206202539162  0.8319574567908532
  0.7417494037731345  0.7512787489123554  0.9265791004192394
  0.6474666162395195  0.8360842420107559  0.9906729952736910
  0.6601333639851319  0.8238975691148553  0.1790820424972281
  0.5708615705584563  0.9249519112877707  0.2422027952460084
  0.4911279193363427  0.9959195410140822  0.3326210656937221
  0.4305567330129705  0.0903281205505451  0.4113947807902250
  0.3325556567394372  0.1734246010322735  0.4891414763289035
  0.2462156615844009  0.2524491056597071  0.5819943590808450
  0.1594024200087034  0.3279756664293600  0.6671233596345516
  0.1004519142540730  0.4134563157530451  0.7473362521752875
  0.0075513644992853  0.5030623912355665  0.8191213287059043
  0.9186271298054081  0.5928811585389937  0.9100418530493570
  0.8210358868256620  0.6611832201194403  0.0147361938379973
  0.7303761741615276  0.7431269864341061  0.0802269280968204
  0.3343441840689749  0.3257600468675861  0.6891038329575991
  0.2504608626008533  0.4110999199098231  0.7544727184187607
  0.1620928971879465  0.5019340180548966  0.8489411648671066
  0.0648368315931052  0.5873498922243314  0.9219835399857601
  0.9794786040579027  0.6695153085943701  0.0009882044969132
  0.9183352312727422  0.7550770492208514  0.0850622448979621
  0.8095444278001906  0.8256510475992727  0.1472534236078147
  0.7460702193086561  0.9024986750514188  0.2479764337130206
  0.6766389015780732  0.9877181260876426  0.3365091451115347
  0.5886473426870751  0.0865180005141610  0.4093049883325435
  0.5111110272306618  0.1731698722512292  0.5024512280493596
  0.4059542957008375  0.2439191326530619  0.5718465625494389
  0.4104752239558636  0.2364690767876922  0.7472594066405662
  0.3375211349074547  0.3413941662711579  0.8405194179125175
  0.2343472126641331  0.4095750069213722  0.9155564161129561
  0.1644447036663479  0.5203068155750685  0.9940348461477626
  0.0717089547737686  0.5848152027962357  0.0848119878183837
  0.9964234624663817  0.6721150806834331  0.1684408736750527
  0.9132590991338390  0.7483590407965508  0.2475063098204373
  0.8285044450047465  0.8219500168090477  0.3393246994146466
  0.7564826476230024  0.8979608111849373  0.4189488263328585
  0.6776239855244413  0.0070183139534876  0.4922840289313370
  0.5841438127867420  0.0685093675842410  0.5765762413977242
  0.4965988757712410  0.1712880453053316  0.6451990483111842
  0.5030415860821051  0.1721001448544541  0.8305411984852071
  0.4244204205228570  0.2384853345989555  0.9265676519735777
  0.3416263867465616  0.3261677350300616  0.9969610746915052
  0.2547242519973096  0.4188662548449642  0.0977627427424466
  0.1611684410101262  0.5123304075700048  0.1736164224410714
  0.0799394963217850  0.5929914634749238  0.2559656526854894
  0.9978996826055990  0.6720435853701971  0.3352570578231280
  0.9190877822931469  0.7431468952697386  0.4069091327519345
  0.8277178803788985  0.8313617683119787  0.5105456306359741
  0.7659090061896876  0.9301073964760320  0.5630424744897979
  0.6817968423706660  0.9931353514080072  0.6758359683989852
  0.5719930430311635  0.0916917284646388  0.7478704442532802
  0.5720333575581407  0.0889104250711910  0.9000621910101216
  0.5089695504073717  0.1541099578785037  0.0028406877867440
  0.4184481510045899  0.2454419934543566  0.0723331069055533
  0.3415905365053007  0.3196625899778525  0.1584304545364645
  0.2405779618533472  0.4120623032352455  0.2560039234298372
  0.1671036213613348  0.5190282476071815  0.3433089330208858
  0.0568675555687363  0.5844990497943385  0.4130609263763674
  0.9922080129726325  0.6680814255062515  0.5098264653535836
  0.9086230407570000  0.7452745140207213  0.5919942547658579
  0.8395820939131440  0.8373179683792102  0.6638266695340960
  0.7617984802641971  0.9211537805529204  0.7462781932249669
  0.6666407194273063  0.0104859105560848  0.8332557659982598
  0.6502955030849549  0.9968111473659249  0.0099601437668113
  0.5909719130675555  0.0835449775549790  0.0866301579061854
  0.5007305944470843  0.1783327840729285  0.1742363278160113
  0.4022276395151110  0.2487992475478578  0.2507737076807501
  0.3311273488174322  0.3447425768272439  0.3279586358962163
  0.2454585820083821  0.4252117539748426  0.4178469827756714
  0.1680236107815247  0.5068324543189391  0.5006608106905546
  0.0960629523611800  0.5901410556082922  0.5799516581632673
  0.0088943655078282  0.6720658286861223  0.6697264910615388
  0.9082694317552580  0.7468475038561948  0.7444553754350594
  0.8254620214364792  0.8240080836695114  0.8201682763803220
  0.7444030898987535  0.9060909681023546  0.9139093596741006
  0.7300780355165344  0.9111195790816353  0.0862503772148386
  0.6616720742366695  0.9948344417418156  0.1760331375573472
  0.6105467019656672  0.0834226210251572  0.2612445509017576
  0.5054050456810657  0.1729969437193475  0.3319983616120865
  0.4213992945143161  0.2575202311738636  0.4143197066326536
  0.3350023913344415  0.3287220430904938  0.4966373200443002
  0.2521003772148376  0.4200034364617906  0.5914912854967582
  0.1685670127353234  0.5102236310512609  0.6741622127630151
  0.0884170720613824  0.6012304495926273  0.7344288922836597
  0.9985258542952096  0.6899959139178904  0.8263404658084141
  0.9011280498536607  0.7538935240666049  0.9185493919079235
  0.8245188478879939  0.8301630779346638  0.0062345193600706
  0.3998993919079226  0.4051176025351992  0.5920260490824205
  0.3116680237502010  0.5051874149659881  0.6712830297816765
  0.2504839651558299  0.5865427656818554  0.7724063038878342
  0.1543822110821083  0.6628212644360048  0.8381747033697167
  0.0760439101803527  0.7480820751265611  0.9310441796195192
  0.9850324226783727  0.8388131036426216  0.0042674235682654
  0.9145251171689637  0.8984520304342638  0.0974294954318964
  0.8365348446646124  0.9980445420028445  0.1769330030849545
  0.7598140518707481  0.0772506278674285  0.2452847655632056
  0.6895463114024665  0.1755154633364953  0.3415960162553375
  0.5963482098362576  0.2641709505022973  0.4163567186758428
  0.4956784226190507  0.3392153194708101  0.5104153664372717
  0.4977387127234607  0.3257151583016906  0.6608398127274171
  0.4066173444668593  0.4268924695459546  0.7272545611849424
  0.3473077697357994  0.4837360722195854  0.8343601536544867
  0.2542464750435087  0.5817248328982743  0.9168613693442467
  0.1635776647286846  0.6566971399897170  0.0046016349272264
  0.0711208447041614  0.7548053566484754  0.0870847368889400
  0.9909774897168191  0.8296257638229676  0.1731130695301388
  0.8967020516927704  0.9067478825541855  0.2448052468952682
  0.8177439042477488  0.9959422015899406  0.3321588395823412
  0.7574409962822344  0.0885999777527289  0.4293360306913456
  0.6669256891710162  0.1697580411525053  0.5139490453448801
  0.5885307254587886  0.2573143025233335  0.5986115240863796
  0.5712007035081470  0.2570685384037361  0.7428104438577776
  0.4955908964167079  0.3426276587960757  0.8126960834915380
  0.4358933490547372  0.4083809805608283  0.9182554085587711
  0.3437377827875352  0.4983417521950670  0.0096168050941330
  0.2517076515780730  0.5774237778832472  0.0839571478009802
  0.1653613431419103  0.6608166819925643  0.1727724410694478
  0.0749863698386335  0.7531749169435216  0.2571538240586904
  0.9983262181616865  0.8437439591243461  0.3094623754152792
  0.9152780463929773  0.9076569362047167  0.4101609926237941
  0.8306161945301369  0.0028935206059160  0.4911683263130868
  0.7592456073999401  0.0876206256921392  0.5876793693640252
  0.6716290994304686  0.1556386519142521  0.6780772682328760
  0.6723164259017551  0.1686002976190508  0.8262674784448691
  0.5815471291132752  0.2577198762062949  0.9045480822852383
  0.5002901988411637  0.3211011548805587  0.0010247028753341
  0.4266845549557061  0.4119948935097284  0.0840278451787668
  0.3521027107063759  0.4969838875375743  0.1771695686995756
  0.2543131654405926  0.5837505962268636  0.2604600829576000
  0.1604759803630742  0.6611403703923457  0.3324766013091249
  0.0871185082463199  0.7496667764198719  0.4191787874742943
  0.0013063226744165  0.8268065980461969  0.5017680059523784
  0.9206675926475256  0.9274346449335553  0.5865358087130232
  0.8335771001423851  0.0104794509373534  0.6727009719585482
  0.7531437257751961  0.0908800120629678  0.7508168174537246
  0.7555042704872648  0.0806827296907144  0.9189286198781872
  0.6660606722630931  0.1769145531759193  0.9908707794455012
  0.5824046719269091  0.2395717360781546  0.0928678136370849
  0.4965150979868724  0.3244525322338205  0.1745619705149508
  0.4163027023018486  0.4038053091876250  0.2520369359080874
  0.3461379953725654  0.5050445271713357  0.3438137151953811
  0.2601955530177165  0.6017836299636130  0.4203437673034358
  0.1501802869403548  0.6834748116397691  0.4804964102792297
  0.1085340195380482  0.7722754637320008  0.5917780493592772
  0.9897262211279880  0.8294248299319733  0.6697924759729474
  0.9243816282036050  0.9142969140563224  0.7552898601882632
  0.8310511301613701  0.0047899096266377  0.8410538957443450
  0.8399144374901155  0.9769620342904588  0.9976160877432392
  0.7487450334203416  0.0675252051692752  0.0844490186481579
  0.6816881936204737  0.1757166622172122  0.1650649392896710
  0.5985578068145898  0.2430322343181430  0.2521943086536922
  0.5015851679916139  0.3310337822338241  0.3114411989795940
  0.4190964804817270  0.4133510693521600  0.4080758038680585
  0.3335294637913293  0.4968346103266867  0.4939185680667606
  0.2338122191899998  0.5947173073880734  0.5849116150529952
  0.1876517822535959  0.6845730808020889  0.6724157392026555
  0.0894352920819514  0.7546575616002187  0.7452563439329225
  0.0024407525510171  0.8166652655829765  0.8340842983705130
  0.9157625212585003  0.9084197713969289  0.9219983551850959
 
  0.00000000E+00  0.00000000E+00  0.00000000E+00
  0.00000000E+00  0.00000000E+00  0.00000000E+00
  0.00000000E+00  0.00000000E+00  0.00000000E+00
  0.00000000E+00  0.00000000E+00  0.00000000E+00
  0.00000000E+00  0.00000000E+00  0.00000000E+00
  0.00000000E+00  0.00000000E+00  0.00000000E+00
  0.00000000E+00  0.00000000E+00  0.00000000E+00
  0.00000000E+00  0.00000000E+00  0.00000000E+00
  0.00000000E+00  0.00000000E+00  0.00000000E+00
  0.00000000E+00  0.00000000E+00  0.00000000E+00
  0.00000000E+00  0.00000000E+00  0.00000000E+00
  0.00000000E+00  0.00000000E+00  0.00000000E+00
  0.00000000E+00  0.00000000E+00  0.00000000E+00
  0.00000000E+00  0.00000000E+00  0.00000000E+00
  0.00000000E+00  0.00000000E+00  0.00000000E+00
  0.00000000E+00  0.00000000E+00  0.00000000E+00
  0.00000000E+00  0.00000000E+00  0.00000000E+00
  0.00000000E+00  0.00000000E+00  0.00000000E+00
  0.00000000E+00  0.00000000E+00  0.00000000E+00
  0.00000000E+00  0.00000000E+00  0.00000000E+00
  0.00000000E+00  0.00000000E+00  0.00000000E+00
  0.00000000E+00  0.00000000E+00  0.00000000E+00
  0.00000000E+00  0.00000000E+00  0.00000000E+00
  0.00000000E+00  0.00000000E+00  0.00000000E+00
  0.00000000E+00  0.00000000E+00  0.00000000E+00
  0.00000000E+00  0.00000000E+00  0.00000000E+00
  0.00000000E+00  0.00000000E+00  0.00000000E+00
  0.00000000E+00  0.00000000E+00  0.00000000E+00
  0.00000000E+00  0.00000000E+00  0.00000000E+00
  0.00000000E+00  0.00000000E+00  0.00000000E+00
  0.00000000E+00  0.00000000E+00  0.00000000E+00
  0.00000000E+00  0.00000000E+00  0.00000000E+00
  0.00000000E+00  0.00000000E+00  0.00000000E+00
  0.00000000E+00  0.00000000E+00  0.00000000E+00
  0.00000000E+00  0.00000000E+00  0.00000000E+00
  0.00000000E+00  0.00000000E+00  0.00000000E+00
  0.00000000E+00  0.00000000E+00  0.00000000E+00
  0.00000000E+00  0.00000000E+00  0.00000000E+00
  0.00000000E+00  0.00000000E+00  0.00000000E+00
  0.00000000E+00  0.00000000E+00  0.00000000E+00
  0.00000000E+00  0.00000000E+00  0.00000000E+00
  0.00000000E+00  0.00000000E+00  0.00000000E+00
  0.00000000E+00  0.00000000E+00  0.00000000E+00
  0.00000000E+00  0.00000000E+00  0.00000000E+00
  0.00000000E+00  0.00000000E+00  0.00000000E+00
  0.00000000E+00  0.00000000E+00  0.00000000E+00
  0.00000000E+00  0.00000000E+00  0.00000000E+00
  0.00000000E+00  0.00000000E+00  0.00000000E+00
  0.00000000E+00  0.00000000E+00  0.00000000E+00
  0.00000000E+00  0.00000000E+00  0.00000000E+00
  0.00000000E+00  0.00000000E+00  0.00000000E+00
  0.00000000E+00  0.00000000E+00  0.00000000E+00
  0.00000000E+00  0.00000000E+00  0.00000000E+00
  0.00000000E+00  0.00000000E+00  0.00000000E+00
  0.00000000E+00  0.00000000E+00  0.00000000E+00
  0.00000000E+00  0.00000000E+00  0.00000000E+00
  0.00000000E+00  0.00000000E+00  0.00000000E+00
  0.00000000E+00  0.00000000E+00  0.00000000E+00
  0.00000000E+00  0.00000000E+00  0.00000000E+00
  0.00000000E+00  0.00000000E+00  0.00000000E+00
  0.00000000E+00  0.00000000E+00  0.00000000E+00
  0.00000000E+00  0.00000000E+00  0.00000000E+00
  0.00000000E+00  0.00000000E+00  0.00000000E+00
  0.00000000E+00  0.00000000E+00  0.00000000E+00
  0.00000000E+00  0.00000000E+00  0.00000000E+00
  0.00000000E+00  0.00000000E+00  0.00000000E+00
  0.00000000E+00  0.00000000E+00  0.00000000E+00
  0.00000000E+00  0.00000000E+00  0.00000000E+00