Li 
 1.0000000000000000
    20.2271999999999998    0.0000000000000000    0.0000000000000000
     0.0000000000000000   20.2271999999999998    0.0000000000000000
     0.0000000000000000    0.0000000000000000   20.2271999999999998
 Li 
 432
Cartesian
 -0.1493836600000000  0.0975705300000000  0.4004646100000000
 18.3539818699999984  1.8334541200000001  1.8235723399999999
 17.0265013200000013  3.4427630800000002  3.3253732399999998
 15.5983115800000007  5.2040031700000000  5.2428675000000000
 13.6183820499999992  7.0192100000000002  6.7574343199999998
 11.6032410299999995  8.5664151400000002  8.4346576800000008
  9.9235460500000006 10.0387172499999995 10.2201674600000008
  8.0010438199999996 12.0829722099999994 11.8141231900000001
  6.5643152100000002 13.9250668900000001 13.4603194500000001
  4.9671313000000001 15.3019667500000001 15.4391491300000006
  3.2992469000000000 17.0307626200000009 17.0097862299999996
  1.5048327600000000 18.6894879600000010 18.5368357800000005
  1.7093893300000000 18.4497573700000004  1.9823826600000001
 -0.2164987800000000 -0.0832953500000000  3.3255911600000001
 18.4571186699999998  1.5071130900000000  5.2863743000000003
 16.9224551000000005  3.3598367900000001  6.7112067599999996
 15.0743553699999993  5.4083446300000002  8.6127603300000004
 13.5042612200000001  6.7872349400000003 10.1160151599999999
 11.7539568499999998  8.3703411800000005 12.0536932199999995
 10.0146700499999994 10.1587968100000001 13.2127799300000000
  8.1431895500000007 11.8369539400000008 14.9022195699999997
  6.9450008299999997 13.3528982700000007 16.9139778499999984
  4.9844483400000001 15.0802869400000006 18.5656399100000016
  3.3072851100000000 17.0331620900000011 -0.1433443700000000
  3.2687314299999999 16.7191026399999991  3.5371847900000000
  2.0085720600000001 18.6581532199999991  4.9182003700000001
 -0.0789764900000000  0.1637274400000000  6.5500542700000004
 18.5362938499999998  1.6346817499999999  8.4998000099999995
 17.0819634299999983  3.5106136999999999  9.9698796000000005
 15.0139990000000001  4.8476306500000002 11.7880382800000003
 13.6119758300000004  6.9145665500000000 13.5269940799999997
 11.6037061799999996  8.2243511700000003 14.8743210599999998
 10.1821315299999995 10.2818681400000003 16.6987959799999999
  8.5042034900000001 11.5427430900000001 18.4037786899999993
  6.7218873500000003 13.5919924800000000 20.4777193100000012
  4.6775621699999999 14.9068406000000007  1.5593962800000001
  5.0218594599999999 15.0060696199999999  5.2253063199999996
  3.3940320599999998 16.8178331199999995  6.6478638800000001
  1.6667584300000000 18.6338906299999998  7.9328301699999999
 -0.0871065100000000  0.0178662700000000  9.7761166399999997
 18.3241633200000003  1.5363733500000001 11.6371981299999998
 17.1387204900000008  3.5670441300000002 13.3108633100000002
 15.3394322800000005  4.9703416000000002 15.1494617599999994
 13.4304388899999996  6.8473443200000004 16.4694163899999992
 11.8120190800000007  8.2514662100000002 18.4121836300000012
 10.3853460099999992 10.1024947100000002  0.0426058900000000
  8.7007674200000000 11.5158859899999992  1.5274178300000001
  6.9831309499999996 13.4777320100000004  3.3964154600000001
  6.9884803599999996 13.4193961700000006  6.6436697300000001
  5.3013256699999998 15.0866656199999998  8.3907583399999996
  3.4294153100000000 17.0321088799999991  9.9294045400000002
  1.7392509599999999 18.4391253000000006 11.8094747800000004
  0.1841526100000000  0.0834316200000000 13.6654968700000001
 18.5833529099999986  1.8370033100000001 15.0152846699999998
 16.7365655000000011  3.4404108000000000 16.9035319900000012
 15.0317420300000002  5.0555576499999999 18.4789983900000010
 13.3435074700000005  6.6662626400000002 -0.2164922100000000
 11.8674480800000008  8.2187421000000001  1.7767628300000000
 10.2627575400000008  9.9939360399999995  3.4740170600000000
  8.5488557099999998 11.9502501100000007  5.1084127400000003
  8.6655479199999998 12.0412572000000004  8.4030467600000005
  6.6535242800000001 13.5276545499999994 10.1329552599999992
  4.7023451800000000 15.1136219000000001 11.8362385600000000
  3.8906243599999999 17.4251944899999991 13.9287583799999997
  1.4448833200000000 18.5639241099999985 15.3699004800000001
 -0.0474162200000000  0.1871010200000000 16.8909799199999995
 18.4274739399999987  1.2468362399999999 18.9104268200000014
 16.7891395699999997  3.2367075999999999 20.3846808300000006
 15.0637770300000007  5.1298000300000002  1.1616100899999999
 13.4321724600000003  6.6478777999999998  3.5327588799999998
 12.0493372300000008  8.3942888999999994  5.0176505699999998
 10.0443764099999999 10.2550375599999999  6.4908388300000004
  1.4644737900000000  1.7820753400000000 18.6631306200000004
 -0.4430817000000000  3.3420950000000000  0.0172891400000000
 18.3313562400000016  5.1258133099999998  1.5041943799999999
 16.8291658300000009  6.8046772100000004  3.2316018600000000
 15.4213604899999996  8.2582482099999996  4.8766912900000001
 13.6781668599999993  9.8807115099999994  6.7677470499999997
 11.9726489600000008 11.6131129400000006  8.4185278100000005
 10.3287852600000001 13.4349253100000006 10.4426743399999999
  8.3450548399999995 15.4004839699999998 11.7424245500000008
  6.6860276100000000 16.9084465600000016 13.7776209200000004
  5.1923545300000002 18.7461483099999988 15.5842805400000000
  3.4234819900000000  0.0523596700000000 16.8501859799999991
  3.5026099899999998  0.1707003100000000 -0.0501344800000000
  2.0095051900000001  1.7825458400000000  1.9146151199999999
 -0.2526248800000000  3.2666919800000001  3.3944584099999999
 18.8767365600000012  5.1198331100000001  4.9080576200000001
 17.0341777500000013  6.9116959199999997  6.7951463399999996
 15.5578313599999998  8.2283717099999993  8.5059715400000009
 13.5408460300000009  9.9313276399999992 10.3589966800000006
 11.6837339700000005 11.3483769999999993 11.4771559399999994
 10.0748302699999996 13.3329234099999994 13.4882849799999995
  8.5579150100000003 15.2449502100000007 15.4579418400000002
  6.8480162900000003 16.7065330699999990 16.8654822499999995
  5.3263837799999996 18.5022275900000004 18.3595049099999983
  5.1537331999999996 18.6598850700000014  1.5916181100000000
  3.6314863599999998 -0.0558268100000000  3.3157113499999999
  1.8689158100000001  1.9722990499999999  4.6647773600000004
  0.1377332900000000  3.0455069899999998  6.9057484499999999
 18.5613196199999990  5.2440568200000000  8.3572791800000008
 16.9112438999999988  6.8501154299999998 10.3878289299999995
 15.1898080699999998  8.3500444799999993 12.0367262499999992
 13.6474346000000004 10.0519415999999993 13.3369856599999999
 11.7681069399999991 11.6315963999999994 14.9080221300000009
 10.2044764800000003 13.2975832100000009 16.6310598100000000
  8.8683847399999998 14.9437295700000004 18.6765315899999997
  6.9652472999999997 16.7168180100000008 20.2682271100000015
  6.5348342700000002 16.5045087899999992  3.5097686700000001
  5.1443474599999996 18.5743594499999993  4.6927720300000004
  3.5332034100000000  0.1052013300000000  6.6329792500000000
  1.7330192400000000  1.5172043700000000  8.2106709099999993
 -0.0474881100000000  3.2101504900000002 10.1948000099999998
 18.6140858199999997  4.7721721600000002 11.6673037300000004
 16.7260574800000015  6.4415040000000001 13.5192846699999993
 15.5601718899999995  8.6164656300000004 15.1601870800000000
 13.4904950499999998  9.9926966999999998 16.6367296099999997
 11.6544368499999997 11.6408507799999992 18.7655754600000009
  9.9172595900000005 13.6255526899999992 20.2375442600000000
  8.5401874499999995 15.0614912099999998  1.9996697999999999
  8.5024262400000001 15.0198901599999992  5.1455880599999997
  7.0364645200000000 16.8146146799999983  6.7387946999999997
  5.1755251700000002 18.7633350900000018  8.1999942600000004
  3.4785052400000001  0.2093518100000000  9.9300958999999995
  1.9174031899999999  1.7432397300000000 11.5056695100000006
 -0.2409459200000000  3.4892621899999998 13.5375433199999993
 18.2271695800000018  5.1277993100000003 15.3125049299999993
 16.7263537100000015  6.6151973999999996 16.9147078700000009
 15.2164517700000008  8.4287293000000005 18.2529342600000000
 13.5512879500000007  9.9990126000000004 20.3233453100000006
 11.8424364900000008 11.6729409400000002  1.7835304999999999
 10.0431142799999993 13.3364989699999992  3.4360449000000002
 10.2858911800000001 13.5924891999999993  6.8820313999999998
  8.4064014500000006 15.1905981800000003  8.8099035899999993
  6.4250711000000003 17.0996779399999994 10.2510416000000006
  5.2376065199999999 18.7756913099999991 11.8047556999999994
  3.2457368400000002 -0.0753293600000000 13.5940039000000006
  1.5791247700000000  2.0331796700000000 15.1614068599999996
 -0.3467798700000000  3.5220874599999998 17.0616948899999983
 18.4116315099999994  4.7981165199999998 18.5660008800000007
 16.8801888600000005  6.6077521299999997 19.8110218399999987
 15.1729107100000000  7.9773495800000003  1.2675586500000000
 13.9334575300000001  9.8315288699999996  3.1408379599999998
 12.0159394000000006 11.5550992499999996  4.9780208899999998
  3.4430700200000000  3.5259865499999998 17.1218569999999985
  1.9421923900000000  4.9007712600000000 18.8324165800000003
 -0.3135919800000000  6.8944974200000004 -0.1677922400000000
 18.2509154299999992  8.3665912500000008  1.3813727000000000
 16.4373970400000005  9.9445616500000007  3.2255362399999998
 15.0106558499999991 11.8890714600000003  4.9120130800000004
 13.6959693399999995 13.3288968499999996  6.7824656100000000
 11.8401710500000004 15.1321334099999998  8.3686404700000008
 10.1789104399999992 16.7267998700000007 10.2139642800000008
  8.4418367300000003 18.4760486099999994 12.1127727600000004
  6.9834513700000000 20.4924395399999995 13.5658440299999992
  4.8419381799999996  1.8065823500000000 15.0160251999999996
  5.1191758299999996  1.7041240099999999 18.5803012099999982
  3.6034391299999999  3.2055966599999999 -0.0834145600000000
  1.2527060999999999  4.8705576199999996  1.5156683000000000
 -0.0094437000000000  7.0809913699999996  3.2627595299999999
 18.4023606000000015  8.3764291800000006  5.2643860000000000
 16.7681664700000006 10.1445681600000004  6.8280690899999996
 15.0723892100000008 11.4989553600000001  8.5231400300000004
 13.6635294599999995 13.4802778700000001 10.2587563900000003
 11.7686150499999993 15.1545657200000008 11.9643528000000003
 10.4277991500000002 16.9260735300000000 13.6674952699999999
  8.2150336700000004 18.6965490599999988 15.3262099200000002
  7.0238793199999998 20.4330676800000006 16.9309435400000012
  7.0468903000000003 -0.0446528500000000 -0.2778560400000000
  5.2426080700000002  1.7571170899999999  1.6111429300000000
  3.2805962100000001  3.6716709900000000  2.8703632400000001
  1.6200905299999999  4.9279997399999997  4.7682478699999997
 -0.1318191800000000  6.8105927399999997  6.6917050800000002
 18.6120558100000011  8.5240012400000005  8.6329957200000003
 16.7296597300000016 10.1835474399999999 10.1423825500000007
 15.0930313900000002 11.4844631499999998 11.8357062200000005
 13.3951923500000003 13.4670658499999991 13.5076256200000007
 11.7974491399999994 15.1361382500000001 14.9268666499999991
 10.3858613200000001 16.7614303199999988 16.6430800300000001
  8.5296398999999994 18.0171120999999985 18.2336140499999999
  8.4792078600000007 18.3407661299999987  1.9713975600000000
  6.9494026499999997  0.1305653100000000  3.3618687299999999
  5.1142836100000002  1.7863211800000001  5.0317544800000000
  3.3481683699999998  3.1767964700000002  6.6156960500000004
  1.7992618600000001  4.9914981000000003  8.1343726000000007
  0.1161368000000000  6.6691727500000004 10.2670337200000006
 18.2582223100000007  8.2826407399999997 11.8365522500000004
 16.9553329599999998 10.0625070999999995 13.3640691900000004
 15.1442315500000007 11.6859461400000004 14.7515342300000007
 13.5021013900000000 13.3024457199999997 17.0023583699999996
 11.5429701300000005 15.0605020399999994 18.1813290700000003
 10.2110046699999995 16.8585840100000013 20.4807562999999995
 10.0402892700000006 16.8359807799999999  3.7195093600000000
  8.5421676499999997 18.5808674300000014  4.9129901900000004
  6.7957339899999996 -0.1814216900000000  6.5336715800000000
  5.4969270400000001  1.5415655399999999  8.2983332500000007
  3.7827379600000000  3.2700577200000001 10.0970622700000003
  1.6518476799999999  4.7934863600000002 11.8838001700000007
  0.2143333400000000  6.8692543600000002 13.4468259900000007
 18.5706599899999993  8.4118416600000003 15.2278481899999996
 16.9264556699999993 10.3035737500000000 16.6147059900000009
 15.2436629400000001 11.7696138900000005 18.6852879099999996
 13.0956147499999993 13.7358704399999993 20.3423033300000000
 11.5367208399999992 14.9819585800000006  1.9527745299999999
 11.7118834100000004 14.7545027100000006  5.2807551799999999
 10.1989262400000005 17.0153295100000008  6.7030653700000000
  8.6375248800000008 18.4557173299999988  8.6277336699999996
  6.6911761399999996  0.0449669300000000 10.0671017999999997
  5.2604905999999998  1.5164955800000000 11.6848814300000008
  3.4167543600000001  3.3200306199999998 13.5816410699999999
  1.7360462999999999  4.8924090800000002 15.3865875100000000
  0.0246105100000000  6.5737303999999996 16.8267168200000015
 18.5185169000000016  8.5598780600000008 18.3457986800000015
 16.6039341200000017 10.0359761100000000 20.0447705399999982
 15.0667410000000004 11.9574221999999999  1.6688761999999999
 13.2617907099999996 13.6280244800000006  3.5576189399999998
  4.9886414600000002  4.9155081799999998 15.3585546599999994
  3.2089270999999999  6.5306808099999998 16.8149884599999986
  1.8117628800000001  8.6420340800000002 18.3990324100000002
 -0.3101517400000000 10.2667774999999999  0.0650035100000000
 18.3592119899999986 11.7428116800000009  1.7116876500000000
 16.9432163200000012 13.6104621500000000  3.2382178700000002
 15.1800578799999997 14.9914240400000001  5.2085404799999999
 13.5067997999999996 16.6768898300000004  6.5626883999999999
 11.9568796899999992 18.7476753000000009  8.4084072299999999
 10.2479769399999991  0.0843576100000000  9.9503590200000005
  8.4707735900000003  1.5924874800000000 11.6440483700000001
  6.6987457099999999  3.2795652600000000 12.9443777999999998
  6.7816188899999998  3.3488536600000001 17.0256841600000008
  5.2309702199999997  5.2235267099999998 18.4837929199999991
  3.0731180600000001  6.8467121899999999  0.3649429000000000
  1.6110746800000000  8.5846608599999996  1.6397322000000001
 -0.1295656300000000 10.1192270600000001  3.4825867800000001
 18.3042331999999988 11.9786471100000007  4.8540293999999999
 16.7543965399999983 13.0944424599999998  6.9413441100000002
 15.1070664499999996 15.3812008500000008  8.4707106700000008
 13.4335268699999997 16.6681817599999995 10.1881969600000009
 12.0355101199999996 18.5825855100000012 11.7400157299999996
 10.0571239200000004 20.3244219299999997 13.4106114099999996
  8.9021223900000006  1.9020879700000000 15.1978123200000006
  8.4529497700000000  1.6567160299999999 18.5664164199999995
  6.6341444500000000  2.9723112800000000  0.0400297900000000
  4.8716991199999997  5.0348402300000004  1.4827742799999999
  3.1600369000000001  6.6931360499999997  3.3452808400000000
  1.6884271900000001  8.5942511499999998  4.9947926899999997
 -0.1065552000000000 10.1984650699999992  6.6296288700000003
 18.6528479400000009 11.5364555400000004  8.6541130800000001
 16.7299572999999988 13.7849946499999998 10.2689500999999996
 15.1516129399999997 15.0580864699999992 12.0678874599999997
 13.8072557099999997 17.0448786500000011 13.4283264599999992
 11.8477777900000003 18.9139212299999997 15.1923360699999996
  9.9489704099999994 -0.2043162100000000 17.1204798800000013
  9.7494591199999991  0.0155817500000000  0.1637942100000000
  8.4937273500000003  1.5072279200000001  1.9210462300000000
  6.9744955400000004  3.5338423900000002  3.0343212500000001
  5.0037888500000003  5.4044753600000002  5.0603660100000001
  3.0728961300000002  6.9149716100000003  6.7688208000000003
  1.4047322400000000  8.8139301000000003  8.2492248999999997
 -0.2708059400000000  9.9645755400000002 10.3041397499999992
 18.4686239100000016 12.0082980799999994 11.9210512400000006
 16.2571645099999991 13.5715963199999994 13.5588531400000001
 14.8964296100000002 15.0362839299999997 15.2893291700000002
 13.5216343800000001 17.1012399200000011 16.6878089100000011
 11.8913534599999995 18.6503250700000009 18.4777047900000007
 11.8344917100000000 18.4282861900000015  1.8699686600000001
 10.2122940999999994  0.2453593200000000  3.3036818700000001
  8.6195929499999995  1.5606759500000000  5.0589156800000001
  6.7765887899999999  3.2381821999999998  6.5378302300000000
  4.9679883100000000  5.1188527400000003  8.3077055699999995
  3.2438435999999999  7.1419213299999997  9.8522794499999993
  2.1379985399999999  8.5774803100000003 11.7530760399999998
  0.2807041400000000 10.2592191899999996 13.4674191800000003
 18.4934380599999990 11.7801993399999994 14.9407491399999994
 16.6253277699999984 13.4798231699999995 16.8281698700000000
 15.0035135400000001 15.1962655099999999 18.7421007800000012
 13.0964367399999997 16.9116431799999987 -0.1886591900000000
 13.3526495799999996 16.6651409100000016  3.6223282900000000
 11.5469311599999997 18.7091873000000000  4.8990843799999997
  9.9341426500000001 -0.0825362600000000  6.7279928199999999
  8.7089571499999998  1.8270849600000001  8.3213645100000004
  6.7266697799999999  3.5078940900000002  9.8939624700000000
  4.9802534300000003  5.1063385500000003 11.7721163000000004
  3.2242646300000000  6.6340294000000002 13.4940376200000003
  2.0318609599999999  8.3630635899999994 15.1165198400000005
  0.1527429600000000 10.1755435999999992 16.5685309399999987
 18.5812546800000007 11.9923257700000008 18.4075985700000011
 16.6072570900000009 13.3738852300000008  0.2980719400000000
 14.7734649499999993 15.0313781800000008  1.6227661200000001
  6.7628466800000000  6.5892136199999998 13.9386410499999993
  5.0661219600000003  8.3154003000000003 15.2608705699999998
  3.2786854499999998 10.1527197699999991 17.1717027299999998
  1.3114675600000001 11.8804437400000005 18.6491454599999997
 -0.4150903800000000 13.5424200500000005  0.0199886100000000
 18.5753503900000005 15.2730944900000001  1.7205710400000001
 16.3748170500000008 16.7006088699999999  2.9785244500000001
 15.0909115400000005 18.2550212000000016  5.0158689200000000
 13.6865103900000005 -0.2484279200000000  6.8066377800000000
 11.9066875299999992  1.7500169000000001  8.2790938599999997
 10.3383449699999996  3.5027416400000000 10.1631814800000004
  8.2113187300000003  4.9338010800000003 11.5668547900000007
  8.3027644499999997  4.7831073100000001 15.1149654699999996
  6.8271075000000003  6.9054480800000002 17.0013543700000014
  4.7401879400000002  8.2845555799999993 18.5191427399999995
  3.3262559100000000 10.5243500200000000 -0.1206583600000000
  1.4504713700000000 11.8291740700000005  1.7155090399999999
 -0.0723433400000000 13.5950061600000005  3.4070872400000001
 18.4726744499999995 15.1372079900000003  5.0063596300000004
 16.7583251100000012 16.6257473800000000  6.8635885600000002
 15.3015258099999993 18.1632329199999987  8.4741616999999998
 13.7064358800000008  0.1419608400000000  9.9575275100000002
 11.8155937299999998  1.3857526800000000 11.6625229499999996
 10.0448047799999998  3.4646775500000002 13.0505701900000002
 10.1751227699999998  3.4811040499999999 16.7995229299999984
  8.5848367299999992  4.8238905599999997 18.7418692100000008
  6.9101452500000002  6.5974600099999998 -0.0614689500000000
  5.1523583899999998  8.4724915099999993  1.9774665499999999
  3.2599862900000001 10.3630096199999997  3.5117740999999998
  1.6169521800000000 11.9945569299999999  5.1774684500000001
 -0.0424835400000000 13.5935600099999991  6.7813115599999998
 18.5905723899999984 15.0317808799999995  8.2306324100000001
 16.7424151099999996 16.8161207600000004 10.3269085799999996
 15.4921946500000001 18.8134683299999992 11.3887727400000003
 13.7908410900000007 -0.1388526200000000 13.6702692999999993
 11.5698176799999999  1.8546669300000000 15.1273250499999996
 11.5706331299999992  1.7984089500000000 18.2057379499999996
 10.2950288899999993  3.1172129399999999  0.0574591600000000
  8.4640344400000007  4.9646042899999996  1.4630962199999999
  6.9094201000000002  6.4658791400000002  3.2046044899999999
  4.8662185500000001  8.3348666199999997  5.1782425600000002
  3.3800383699999998 10.4984881699999999  6.9441784499999999
  1.1502714199999999 11.8227791799999995  8.3550659700000001
 -0.1576100800000000 13.5134166100000002 10.3123618799999992
 18.3788999699999991 15.0748166500000007 11.9743861900000006
 16.9823949300000017 16.9365980100000009 13.4273548100000006
 15.4090502199999992 18.6323617500000012 15.0951182700000004
 13.4842751599999993  0.2121006100000000 16.8544310300000006
 13.1536571999999996 -0.0645015600000000  0.2014658200000000
 11.9537070799999992  1.6898809699999999  1.7522855300000000
 10.1283778800000004  3.6071728900000002  3.5243130499999999
  8.1359389100000001  5.0325121399999997  5.0724499400000003
  6.6977791099999999  6.9731770500000003  6.6336849200000003
  4.9649398299999996  8.6008431900000009  8.4518744899999998
  3.3986471800000002 10.2518014199999996 10.1269663500000000
  1.9430845500000000 11.9369011599999997 11.7307981800000007
  0.1799081100000000 13.5940099300000004 13.5466916800000003
 18.3717474500000009 15.1066338299999998 15.0582477699999995
 16.6967853999999996 16.6673763100000016 16.5897077599999996
 15.0571901799999992 18.3276832300000017 18.4858274000000016
 14.7674344400000006 18.4293979499999985  1.7446036300000001
 13.3837733799999992 -0.1044847800000000  3.5606574800000002
 12.3496502499999998  1.6874060399999999  5.2842457800000000
 10.2229289399999992  3.4992437800000000  6.7153972599999996
  8.5237278100000005  5.2089132200000003  8.3805275699999999
  6.7761603700000004  6.6491265100000003 10.0455824000000007
  5.0992847499999998  8.4954935099999993 11.9642125299999993
  3.4096386800000000 10.3203954299999996 13.6364139099999999
  1.7884298000000001 12.1612085499999996 14.8554400900000001
 -0.0298178400000000 13.9566853500000008 16.7145538699999996
 18.2272972899999992 15.2491550900000004 18.5796822599999985
 16.6777076400000013 16.7918746100000007  0.1261068700000000
  8.0888449799999993  8.1943947700000006 11.9750292999999992
  6.3041714500000001 10.2185268800000006 13.5781761000000003
  5.0665892599999998 11.8641178299999996 15.6236167899999998
  3.1227198600000001 13.4070182800000008 16.9539273600000016
  1.5381553800000001 15.1316057500000003 18.8324168299999997
 -0.3027521800000000 16.9668404099999997  0.0863180300000000
 18.4982824500000014 18.1731689100000011  1.9707258900000000
 16.9207576099999990 20.1876465600000010  3.5788592399999999
 15.3689107899999993  1.5625639000000000  4.9614240100000000
 13.9475911499999992  3.5501863800000000  6.9095309399999998
 12.0624545100000002  5.3434386500000004  8.4217306199999999
 10.0261865900000000  6.8613761100000001 10.3242737000000009
 10.0678604899999993  6.5883056499999997 13.3669390600000000
  8.2247303499999997  8.6348393600000009 14.7103234599999997
  7.0250637200000003  9.7846262799999995 16.8767697000000005
  5.1426942999999996 11.7666645400000007 18.5455382899999996
  3.3087181399999999 13.2831443900000004  0.0930781900000000
  1.4385755499999999 15.2675989100000002  1.7614803900000000
 -0.1825001200000000 16.7810062500000008  3.5015926799999999
 18.1377717400000016 18.3409707699999984  4.9517246899999998
 16.5406694999999999 20.1451220999999983  6.7186432800000002
 15.3209105200000000  1.7921294699999999  8.6842657600000006
 13.4900392999999994  3.4337298500000002 10.3957501299999997
 11.9043286899999998  5.2047478600000003 12.1082350200000004
 11.5537908700000003  5.1997767399999999 15.0249754099999997
 10.0244161799999993  6.9303981800000001 16.4385662199999985
  8.8169019500000001  8.2604037699999999 18.5737358000000015
  6.9528528800000000 10.0800582900000002  0.1945210400000000
  5.0913410099999998 11.6796662399999995  1.6982180200000001
  3.3447969600000000 13.3664711900000004  3.4947027199999998
  1.5167643000000000 15.2346196799999998  5.2015018299999998
 -0.0338559200000000 17.0665778099999983  6.2595573599999996
 18.5135120999999998 18.3593583799999998  8.2964084299999996
 16.8010398899999984  0.0585278200000000  9.9349599699999995
 15.3574127499999999  1.7723199199999999 11.8871081400000005
 13.5851761199999999  3.1481341399999998 13.7156045199999994
 13.5990788100000000  3.4103119400000002 16.7130775400000005
 11.7630700899999994  5.2129514800000001 18.2964749699999985
 10.1194699099999994  6.4949772799999996  0.0207268700000000
  8.6306338300000007  8.3335031100000005  1.6996480300000001
  7.1220519500000004 10.0525924900000003  3.5836443000000000
  5.1440432600000001 11.8076400600000007  5.2683781900000000
  3.2459797500000001 13.3730185000000006  6.7250707099999998
  1.7621634900000001 15.1636598199999995  8.4788131700000005
  0.0264232500000000 16.7239824199999987 10.1493618100000003
 18.6225275299999993 18.7594060499999991 11.8639771100000004
 16.8609307199999989 20.4391699500000001 13.6068570999999991
 15.2339887699999998  1.8382481799999999 15.1869219300000005
 15.2817359800000006  1.6319857099999999 18.5873529799999986
 13.4725424300000007  3.5784860500000000 -0.1846585700000000
 11.7804157800000002  4.8458654200000000  1.8784558400000000
 10.0431101900000002  6.5627662600000001  3.5308998900000002
  8.4206380200000002  8.1678507499999995  5.0980015099999996
  7.0014024600000004 10.2156366599999995  6.9543887800000004
  5.2630274899999998 12.1723978400000004  8.5023774499999991
  3.0377266999999999 13.8247817099999999  9.7190969900000006
  2.1953393200000000 15.6209702600000000 11.9700129600000000
 -0.2078097800000000 16.7769419199999987 13.5480263700000005
 18.6976520700000002 18.4936665399999995 15.2773990600000005
 16.8098374200000009 20.3240864600000002 17.0121653600000009
 16.9891173100000010 -0.4659935400000000 -0.0482198700000000
 15.1450155399999993  1.3658458300000000  1.7081671899999999
 13.7886434300000005  3.5542560700000001  3.3388015400000000
 12.1071484700000003  4.9158616100000003  5.1011847200000000
 10.1456635100000003  6.6958865200000002  6.2995834200000003
  8.4771483300000003  8.3609347500000002  8.2542308999999996
  6.7463671700000001 10.0495730299999995  9.9905896599999995
  4.7293665200000001 12.0294659199999998 11.8311242199999995
  3.7956701300000000 13.8469966200000005 13.6010876399999994
  1.8090255399999999 15.2646094300000001 15.0744491200000006
  0.0493695900000000 16.5188516599999993 16.8711899199999991
 18.5233116699999982 18.3747883999999999 18.6494451300000001
