Li                                      
   1.00000000000000     
    20.6400000000000006    0.0000000000000000    0.0000000000000000
     0.0000000000000000   20.6400000000000006    0.0000000000000000
     0.0000000000000000    0.0000000000000000   20.6400000000000006
   Li
   432
Direct
  0.9924913241279043  0.0028182718023260  0.9914359927325549
  0.9094833677325553  0.1090589496124039  0.0802797785852718
  0.8292239849806222  0.1870763367248074  0.1852276332364369
  0.7648677882751969  0.2530229287790675  0.2246465571705443
  0.6681835077519409  0.3222965465116303  0.3198683086240308
  0.5739811603682199  0.3914258449612404  0.4136750571705434
  0.5097676458333353  0.5074585082364322  0.4922072165697671
  0.4235988662790717  0.6013276976744208  0.5964599413759686
  0.3183038749999980  0.6716281981589134  0.6410864941860481
  0.2297093691860468  0.7755403599806172  0.7459659631782927
  0.1554668667635681  0.8328278299418628  0.8234531535852696
  0.0755117698643417  0.9224397485465090  0.8967547776162803
  0.0813632562984523  0.9236175823643435  0.0794958546511637
  0.0151264103682180  0.0126877446705436  0.1779966753875968
  0.9214977742248038  0.0804272969961275  0.2635977257751918
  0.8557911201550397  0.1752620343992248  0.3458918149224814
  0.7477753546511607  0.2619398972868225  0.4060963672480611
  0.6644023735465083  0.3272136332364326  0.4878931831395334
  0.5847313381782939  0.4265728885658930  0.5736679345930256
  0.5196453682170556  0.4975908386627879  0.6526445993217038
  0.3999940281007781  0.5656707810077535  0.7258126656976742
  0.3220242810077494  0.6782077596899256  0.8281705639534849
  0.2403618691860459  0.7471148425387568  0.9148296303294572
  0.1430908158914761  0.8426793163759712  0.9965622848837228
  0.1987329937015474  0.8286989757751968  0.1464403328488402
  0.0925834602713209  0.9340650780038757  0.2471845266472883
  0.9978459631782925  0.0122242165697699  0.3421850043604664
  0.9304287136627920  0.0851396899224781  0.4369908890503851
  0.8186536555232564  0.1700941511627931  0.4914209622093040
  0.7375200247093048  0.2576906065891507  0.5925590290697684
  0.6649704505813929  0.3502734796511646  0.6487724617248034
  0.5554652499999975  0.4341944689922457  0.7669055053294542
  0.5014626070736412  0.5054179588178300  0.8392224937015484
  0.4125985382751907  0.6048198338178281  0.9077763459302304
  0.3145741090116303  0.6744830062984519  0.9892153037790692
  0.2565263086240321  0.7450999287790694  0.0504891327519346
  0.2524772868217084  0.7369909113372088  0.2285332281976764
  0.1752878357558174  0.8352573187984476  0.3230463449612415
  0.0691333730620158  0.9229139394379828  0.4046271312984473
  0.9869229176356598  0.9800109341085275  0.4989426409883748
  0.9202961768410844  0.0900543478682181  0.5901640867248048
  0.8173626879844988  0.1590724074612382  0.6620865968992220
  0.7407050843023271  0.2419804883720929  0.7513685712209295
  0.6484505532945732  0.3475769171511658  0.8528477722868217
  0.6048588609496122  0.4161733793604654  0.9093579287790732
  0.4956181429263538  0.5082052684108547  0.9961327868217040
  0.3845125968992278  0.6016640668604651  0.0574628008720950
  0.3325586947674424  0.6651828875968988  0.1732012156007769
  0.3252059801356566  0.6707406187015508  0.3023945092054277
  0.2522337102713195  0.7369462126938018  0.4411677170542632
  0.1449921012596889  0.8637192189922445  0.4793732005813922
  0.0586584927325546  0.9169141632751945  0.5779750746124037
  0.9880162945736402  0.9904030881782973  0.6556035101744158
  0.9157234966085284  0.0797995024224818  0.7557451099806229
  0.8253862902131814  0.1706407606589124  0.8297607286821673
  0.7610899912790714  0.2700553439922473  0.9379241448643398
  0.6544003435077528  0.3260521124030973  0.0026329253875943
  0.5735404651162810  0.4130271715116294  0.1086090058139533
  0.4982311618217068  0.5093581167635648  0.1604253134689912
  0.4196214990310096  0.5835522344961248  0.2466294302325593
  0.4174614656007734  0.5926452999031042  0.4015018590116313
  0.3290912262596919  0.6684731094961265  0.4938818822674449
  0.2502284525193801  0.7587996206395360  0.5656482887596894
  0.1606991342054229  0.8283059379844957  0.6611887805232541
  0.0595535489341117  0.9123707146317841  0.7482882214147253
  0.9971110532945744  0.0015503895348843  0.8392753415697669
  0.8982631787790680  0.0904573885658948  0.9261607369186038
  0.8384585697674396  0.1677937102713187  0.9920871971899246
  0.7670770455426350  0.2666177359496089  0.0824366061046504
  0.6559462272286822  0.3232017839147261  0.1828548672480608
  0.5925703202519372  0.4160598934108535  0.2419076211240281
  0.4925155910852723  0.5214990499030989  0.3182285353682204
  0.0776119471899221  0.0886477141472852  0.8983767868217072
  0.0114997480620147  0.1751584636627896  0.9976567214147281
  0.9331416201550411  0.2587024849806170  0.1026458425387631
  0.8459222262596882  0.3565810954457334  0.1693684341085273
  0.7803935193798424  0.4152587097868192  0.2526765886627942
  0.6780802296511652  0.5015491191860448  0.3264393808139516
  0.5919137165697705  0.5832615881782957  0.4188983086240299
  0.5005986293604678  0.6559468439922469  0.4986441065891469
  0.4239738192829492  0.7475818638565883  0.5785967301356578
  0.3371519011627910  0.8265680818798415  0.6709949374999979
  0.2507210019379826  0.8913695402131765  0.7386853057170555
  0.1664856778100798  0.9983208372092989  0.8097804379844931
  0.1629965620155005  0.0224068459302345  0.9873316356589115
  0.1026898842054251  0.0969271162790690  0.0851972267441852
  0.9991812170542644  0.1841658032945759  0.1763944006782978
  0.9364512490310091  0.2580572388565869  0.2503229961240336
  0.8536020431201550  0.3162306312984526  0.3427332170542670
  0.7547143706395332  0.4061757960271350  0.4094043585271336
  0.6618485862403105  0.5173312068798452  0.4952581162790679
  0.5785596269379880  0.5766156056201552  0.5881337756782941
  0.5038457480620124  0.6660992107558172  0.6647112732558114
  0.4134254273255848  0.7469949113372110  0.7353926511627904
  0.3390369273255800  0.8386859234496100  0.8543092291666667
  0.2358465581395350  0.9225139752906983  0.9158540208333363
  0.2475738120155029  0.9191505697674387  0.0664422538759695
  0.1760604675387611  0.0070857902131749  0.1573890382751912
  0.0929759709302331  0.0835104878875939  0.2435772863372065
  0.0198227185077542  0.1857682858527099  0.3342737887596883
  0.9343087228682165  0.2486518754844980  0.4114105290697694
  0.8263034777131750  0.3101679869186071  0.4970144113372115
  0.7432023677325574  0.4135870692829471  0.5736872781007776
  0.6808799907945726  0.4951010290697653  0.6832138653100799
  0.5863214215116272  0.5735860639534849  0.7611302063953502
  0.5054457218992212  0.6634789142441875  0.8280145731589172
  0.3985782499999999  0.7263913343023276  0.9406338367248068
  0.3337863803294567  0.8650373488372125  0.9869183023255843
  0.3500594127906993  0.8233329118217085  0.1471240702519410
  0.2623100658914694  0.9076018972868241  0.2333570683139570
  0.1749481574612375  0.0001139326550401  0.3177879874031007
  0.0985313943798474  0.0727761652131775  0.4258703696705410
  0.9785200411821720  0.1641978580426340  0.5047683691860456
  0.9050570455426339  0.2595898401162771  0.5835180179263588
  0.8351183575581373  0.3324902107558145  0.6722321424418638
  0.7419020402131764  0.4034760843023264  0.7556737097868194
  0.6920658599806231  0.4924496773255811  0.8285268982558165
  0.5821571913759698  0.5839829190891450  0.9392689539728707
  0.5311328037790730  0.6625985135658894  0.9979567068798474
  0.3955686235465095  0.7322283609496125  0.0515230174418591
  0.4360568619186012  0.7601824539728668  0.2483753154069746
  0.3425239689922464  0.8302900697674431  0.3139809437984482
  0.2504645009689952  0.9076185251937972  0.3846580755813989
  0.1519658885658899  0.9705351497092991  0.5019479844961268
  0.0756931405038728  0.0878274927325577  0.5777744321705427
  0.9767888032945748  0.1739991884689900  0.6767229268410873
  0.9069297529069758  0.2486417117248081  0.7670235843023221
  0.8524142107558106  0.3461759946705456  0.8471229316860445
  0.7587853343023241  0.4047449268410830  0.9356582742248065
  0.6668708788759687  0.4898391400193773  0.9897324050387581
  0.5850702049418572  0.5597221686046510  0.0674479811046496
  0.4783546395348850  0.6581393008720937  0.1372331405038736
  0.5009953062015526  0.6807470624999965  0.3172602422480608
  0.4240984825581364  0.7674270155038769  0.4331126855620155
  0.3444206797480618  0.8350364040697684  0.5145124777131755
  0.2274376322674385  0.9183748691860458  0.5697071259689892
  0.1532900862403110  0.9788205125968972  0.6635230566860457
  0.0628389505813942  0.0872598406007725  0.7375011332364352
  0.9938341007751959  0.1649893512596918  0.8310056666666696
  0.9134886802325610  0.2646648507751905  0.9093565935077521
  0.8519299806201559  0.3355372989341063  0.0087413381782966
  0.7483137005813987  0.4084860169573616  0.0837396322674451
  0.6763380692829486  0.4738128207364340  0.1948553381782929
  0.5871502078488362  0.5903510445736444  0.2629847068798483
  0.1561683871124018  0.1791703250968979  0.8290650387596870
  0.0829237480620151  0.2669163313953504  0.9296468057170557
  0.9851392771317862  0.3205864355620136  0.9950798517441868
  0.9448391201550379  0.4420944878875943  0.0834604045542662
  0.8318949723837221  0.4915145188953502  0.1553677940891447
  0.7544698124999982  0.5927765058139514  0.2675983701550422
  0.6415369263565864  0.6745650092054234  0.3417458861434142
  0.5887601419573656  0.7829465876938002  0.4127991715116295
  0.5047674941860478  0.8467568081395314  0.5194189549418624
  0.4137305503875979  0.9227819796511625  0.5934977611434107
  0.3170846652131800  0.9904745687984473  0.6688780062984492
  0.2438112800387628  0.0908507170542663  0.7476278221899193
  0.2430984040697695  0.0879941046511661  0.8965549156976778
  0.1746458987403088  0.1654880382751927  0.0027052945736443
  0.0892254835271302  0.2472671531007720  0.0836852606589176
  0.0012312863372088  0.3448451429263599  0.1827083948643420
  0.9123296734496122  0.4125844089147321  0.2513193449612388
  0.8330593512596920  0.4927796603682140  0.3503214442829474
  0.7458392514534893  0.5922278008720951  0.4039816598837191
  0.6454888614341101  0.6553178546511660  0.4949222170542669
  0.5829202504844986  0.7500825586240296  0.5820392490310056
  0.4991939069767426  0.8309507558139515  0.6615001981589117
  0.4307067063953482  0.8997556419573627  0.7382633561046532
  0.3425158740310081  0.9914174907945750  0.8288019026162772
  0.3158267625968989  0.9994905402131806  0.9883712320736464
  0.2682444641472870  0.1003126942829482  0.0721255615310099
  0.1709507214147266  0.1663847136627936  0.1652842877906977
  0.0992806293604644  0.2817607829457387  0.2628765857558122
  0.9842645455426364  0.3551060339147298  0.3235267374030997
  0.9124983527131789  0.4207361046511622  0.4316697567829451
  0.8234969670542611  0.4994659389534917  0.4794953987403119
  0.7542856133720903  0.6002698449612396  0.5841277112403134
  0.6580165033914724  0.6616333687015512  0.6663335184108519
  0.6015447189922511  0.7477506569767414  0.7401122902131760
  0.4978022359496137  0.8162089689922496  0.8552349515503863
  0.4259833958333346  0.9200882931201519  0.9328979854651180
  0.4161900600775184  0.9293838987403120  0.0827089312015516
  0.3088224840116283  0.9961430310077546  0.1627944626937960
  0.2597670629844941  0.0975814253875953  0.2423520528100767
  0.1671643575581427  0.1690666438953485  0.3608198134689928
  0.0679229365310050  0.2673317766472891  0.4416230915697668
  0.9894144341085251  0.3326950431201539  0.5237364999999983
  0.8988080290697695  0.4237226928294575  0.5652741802325565
  0.8181717349806235  0.5050155838178298  0.6613955305232579
  0.7387342625968998  0.5977171812015527  0.7372122398255812
  0.6685310804263551  0.6606493095930261  0.8427058730620161
  0.5899979462209330  0.7498731540697676  0.9264852548449625
  0.4737119811046497  0.8263330624999981  0.0026491090116281
  0.5008486739341080  0.8178157374031017  0.1456879539728675
  0.4280317015503883  0.9336743812984523  0.2462086477713186
  0.3387599302325555  0.9908760886627874  0.3297196535852720
  0.2464920363372087  0.0600716133720951  0.4370103871124016
  0.1759052354651160  0.1716920092054295  0.5124891206395361
  0.0686025310077554  0.2407392088178284  0.6018283168604626
  0.9680993958333346  0.3480884563953452  0.6746549389534877
  0.9005580591085263  0.4324504006782917  0.7555018309108519
  0.8245589457364346  0.5121733614341082  0.8379140305232582
  0.7328276429263596  0.5801865687984531  0.9462236821705403
  0.6640632344961261  0.6805886182170511  0.0101835508720924
  0.5818518173449618  0.7445939840116296  0.0872873745155047
  0.5798029021317817  0.7553174515503898  0.2507162417635627
  0.4940265135658919  0.8452280140503845  0.3299189869186065
  0.4043721981589172  0.9194874016472880  0.4166081191860442
  0.3436712708333332  0.9956743943798472  0.5102653042635694
  0.2407565382751926  0.0686987582364367  0.5954182950581384
  0.1594143372093058  0.1714032848837235  0.6560926182170519
  0.0690123871124015  0.2488015019379830  0.7409256075581396
  0.9910432616279081  0.3567804520348830  0.8443099035852697
  0.9423528575581415  0.4397836511627915  0.9247352480620137
  0.8292497189922514  0.5061831187015500  0.0236747616279089
  0.7318444345930217  0.5810994055232541  0.0879918909883699
  0.6657951501938015  0.6652380721899220  0.1665520281007744
  0.2641837577519368  0.2318946981589178  0.7274312926356572
  0.1579895968992275  0.3162018444767440  0.8439507059108493
  0.0887451666666692  0.4116913047480608  0.9346404379844984
  0.0064172359496126  0.5025023260658941  0.9879344903100744
  0.9075536516472837  0.5785030746124065  0.0761455218023244
  0.8164321240310102  0.6504508565891456  0.1857636254844977
  0.7434853396317820  0.7547898822674384  0.2512828139534875
  0.6554837853682187  0.8503296719961213  0.3340253803294573
  0.5640072049418592  0.9139998822674400  0.3994354307170553
  0.4810334447674407  0.9766145736434098  0.5122951991279052
  0.4325280266472902  0.0847583367248035  0.6105639752906953
  0.3415067945736467  0.1538477441860451  0.6616137257751973
  0.3371281991279105  0.1649336807170556  0.8212815838178287
  0.2441586148255794  0.2471728192829445  0.9079746603682182
  0.1570403144379853  0.3342028439922515  0.0038192940891477
  0.0876151545542641  0.4152018163759692  0.0826946700581388
  0.0141778328488371  0.5287400242248026  0.2021455106589158
  0.9147174772286846  0.5880772718023266  0.2642778362403106
  0.8314124762596933  0.6731266463178258  0.3403282025193803
  0.7381991540697683  0.7511522301356592  0.4357651710271284
  0.6581104258720956  0.8425267170542625  0.5012493478682174
  0.5789761419573622  0.9160675886627914  0.5965815499030995
  0.5039363318798422  0.9985619040697671  0.6772467892441867
  0.4218681933139550  0.0781161487403068  0.7512904229651127
  0.4174405964147283  0.0912785460271337  0.8992146240310106
  0.3244773725775190  0.1680727252906991  0.9795765004844981
  0.2431148653100763  0.2517588459302331  0.0813326487403074
  0.1778719573643386  0.3457064607558138  0.1679662805232525
  0.1102785101744175  0.4181535479651188  0.2660733929263586
  0.0095665799418612  0.4875652107558111  0.3416533740310044
  0.9309002218992219  0.5638141322674386  0.4160518241279050
  0.8316876429263544  0.6509149718992262  0.4848113551356619
  0.7469912601744184  0.7392110363372097  0.5819479680232575
  0.6554259636627933  0.8338947059108506  0.6659999525193783
  0.5704386448643390  0.9008104675387614  0.7379894651162786
  0.5160085387596922  0.9975007286821693  0.8488027829457394
  0.4938643018410858  0.0138227088178269  0.0109411434108537
  0.3854851308139544  0.0829950862403095  0.0939910339147261
  0.3429846497093010  0.1782319273255837  0.1552393488372061
  0.2633063309108508  0.2414848691860456  0.2609698619186034
  0.2107529520348805  0.3376472839147269  0.3337093323643430
  0.0887578657945767  0.3853420523255835  0.4204707088178310
  0.0257720406976745  0.4935044282945711  0.4936265193798448
  0.9186213323643386  0.5720077286821734  0.5711726225775209
  0.8248034806201545  0.6541379975775214  0.6658992000969022
  0.7410087650193802  0.7697631065891457  0.7606990406976735
  0.6680121623062050  0.8361449510658900  0.8452753396317831
  0.5694213420542624  0.9112775111434104  0.9366858502907007
  0.5727507669573626  0.9193606816860438  0.0691748236434080
  0.5046704869186058  0.9943579181201585  0.1798922238372072
  0.4365521574612430  0.0740202974806223  0.2274003217054243
  0.3506790305232528  0.1332415465116270  0.3517367553294548
  0.2749706080426364  0.2431777291666677  0.4276403144379870
  0.1816802722868189  0.3269786157945731  0.5199703372093012
  0.0897110775193823  0.4052140503875989  0.5699718057170529
  0.0052341501938002  0.4804299699612429  0.6545440532945719
  0.9112905281007784  0.6043803725775163  0.7657034723837199
  0.8300553963178317  0.6634392621124050  0.8560317131782966
  0.7501932291666691  0.7692487054263566  0.9056828754844943
  0.6757641584302334  0.8322102921511600  0.0177342756782934
  0.6697077349806193  0.8442444738372075  0.1753740256782947
  0.5796533924418625  0.9053648401162775  0.2343947218992213
  0.4975249573643410  0.0014428483527098  0.3246883507751903
  0.4302625474806234  0.0619838284883727  0.4287020658914713
  0.3543767475775184  0.1532435484496091  0.5006206409883731
  0.2798745048449618  0.2313361298449621  0.5864870717054274
  0.1591325135658934  0.3176609680232545  0.6753980576550376
  0.0896552243217030  0.4049693909883700  0.7396349578488355
  0.0125628081395348  0.5064304486434139  0.8336029181201567
  0.9137876879844953  0.5779031366279099  0.9302447979651163
  0.8271774641472902  0.6782070077519364  0.9977436002906970
  0.7691761579457363  0.7456323527131801  0.0905770406976742
  0.3460248178294592  0.3325435009689954  0.6640726458333361
  0.2587239399224828  0.4053660271317838  0.7473379980620152
  0.1623450775193831  0.4830508246124054  0.8143438827519347
  0.0824245523255840  0.5908725329457383  0.9154410930232544
  0.9847129685077505  0.6782239626937994  0.9864078265503906
  0.9107268740310062  0.7499746710271324  0.1085234210271295
  0.8112946061046529  0.8311404026162776  0.1695071453488382
  0.7623794205426364  0.9329166889534903  0.2566701085271319
  0.6581627407945732  0.0050627587209320  0.3279347843992255
  0.5716670896317808  0.0878509578488362  0.4219679219961208
  0.4975258081395353  0.1613519098837202  0.5043993260658937
  0.4351381574612390  0.2458709791666678  0.6064708764534856
  0.4352679055232542  0.2409057829457382  0.7327010721899256
  0.3377982015503846  0.3235808871124064  0.8354214602713199
  0.2482083648255795  0.4276370019379812  0.8965041070736461
  0.1649538028100750  0.4918120218023248  0.9767443817829431
  0.0844739597868198  0.6004288561046494  0.0717584307170540
  0.0094900983527140  0.6753933032945767  0.1673216201550360
  0.9195021603682179  0.7431085038759662  0.2653516598837200
  0.8355667839147287  0.8229684249031024  0.3271341647286832
  0.7504768842054261  0.8965859825581362  0.4074980833333299
  0.6494163517441862  0.9774102781007770  0.4896480901162761
  0.5846577189922471  0.0573641700581362  0.5554305411821687
  0.5347234563953478  0.1629373507751950  0.6668033919573659
  0.5005613633720927  0.1582197771317837  0.8162620915697687
  0.4123508444767410  0.2514871031976753  0.9158334176356604
  0.3064324728682166  0.3506178556201576  0.9952000019379810
  0.2518124704457350  0.4387199060077549  0.0824540571705441
  0.1670674239341068  0.5084071623061988  0.1351728992248056
  0.0881610731589149  0.5908618808139536  0.2638115048449592
  0.0230657897286832  0.6630585891472833  0.3372948095930255
  0.9087142596899227  0.7584771390503846  0.4318471094961254
  0.8321276652131786  0.8364953730620144  0.5053855828488381
  0.7373440382751966  0.9365226739341068  0.5984188885658881
  0.6521274786821678  0.0000019699612395  0.6592325813953508
  0.5823296807170522  0.0814603478682159  0.7845937640503848
  0.5784689951550419  0.0620825096899225  0.9177040983527149
  0.4788900082364336  0.1714213376938005  0.9910700586240324
  0.4022505571705395  0.2540678604651134  0.0901351875000032
  0.3330777005813985  0.3387426521317849  0.1638979699612406
  0.2755669249031030  0.4312657272286842  0.2380404379844947
  0.1514011836240314  0.5097910062984496  0.3272741308139544
  0.0876425571705397  0.5812800964147300  0.4136758100775211
  0.0062897068798478  0.6671031027131775  0.5007448992248058
  0.9181652199612387  0.7486248657945751  0.5875184467054240
  0.8179108357558107  0.8277447562984506  0.6600615789728650
  0.7512731322674426  0.9154226715116280  0.7569040896317816
  0.6635113817829463  0.9832073624030997  0.8526374801356553
  0.6859051312984477  0.0002510150193800  0.0117489287790704
  0.5759292315891500  0.0897954491279052  0.0761202417635687
  0.4877262320736406  0.1558063032945753  0.1680368987403114
  0.4078209360465124  0.2460911017441845  0.2611365746124008
  0.3520088488372082  0.3303882577519346  0.3323797611434074
  0.2433583628875979  0.4147056337209278  0.4101740823643425
  0.1793911201550387  0.4937923754844959  0.4860945620155022
  0.0770908827519392  0.5798503294573649  0.5786667592054258
  0.9919616337209334  0.6609175823643412  0.6904614752906966
  0.9070869878875953  0.7533518696705457  0.7554408110465118
  0.8312918313953475  0.8490665460271316  0.8169593953488388
  0.7598233837209278  0.9234636211240286  0.8934642587209325
  0.7479870242248055  0.9407103052325567  0.1006219389534877
  0.6579817616279087  0.9999436279069798  0.1658462335271338
  0.5942675295542656  0.1023041085271288  0.2410956763565864
  0.4991653347868237  0.1523143323643410  0.3388264709302291
  0.4194550741279102  0.2352577965116254  0.4189299656007748
  0.3533925750968976  0.3315026497093001  0.5141444588178317
  0.2366056099806215  0.4113555310077501  0.5804501443798458
  0.1492560232558162  0.4931184602713188  0.6526621308139511
  0.0969915731589168  0.5778681002907007  0.7331926991279047
  0.9977081545542603  0.6693914321705421  0.8337699452519374
  0.8992662727713210  0.7663903614341052  0.9082588575581383
  0.8333930697674390  0.8486496967054293  0.0098729811046496
  0.4372097543604667  0.4103460019379810  0.5861965014534860
  0.3290035082364327  0.4677786017441861  0.6658514089147261
  0.2481060024224817  0.5664559089147261  0.7429738924418601
  0.1540146298449585  0.6787919830426361  0.8232620678294609
  0.0698982214147321  0.7655234893410849  0.9092175469961248
  0.9872528333333364  0.8394478687015479  0.0052551531007765
  0.9117365823643411  0.9301863619186079  0.1046437354651175
  0.8450521424418582  0.0182498754844929  0.1743451569767416
  0.7784823066860440  0.0783822795542619  0.2680825949612426
  0.6931500639534889  0.1561848812984508  0.3346856933139506
  0.5730941695736433  0.2554837761627908  0.3997413735465116
  0.4912056458333325  0.3314955634689909  0.4826756332364326
  0.5248154912790710  0.3348629103682157  0.6507505247093022
  0.4526334050387604  0.3783659849806185  0.7624267630813932
  0.3562041690891462  0.4710573444767476  0.8186933473837215
  0.2505207747093010  0.5821389534883750  0.9087047059108500
  0.1460831400193783  0.6660193953488402  0.9897647562984488
  0.0836569282945732  0.7530850746124003  0.0835603541666643
  0.0013927475775191  0.8367642325581386  0.1839034617248032
  0.9190199937015535  0.9065514326550357  0.2685853987403135
  0.8354793929263593  0.0128137020348831  0.3505160242248095
  0.7429760809108501  0.0708340474806235  0.4195786007751963
  0.6404963255813954  0.1696907843992221  0.4907436865310046
  0.5813544636627910  0.2470603992248073  0.5756172601744183
  0.5928410683139518  0.2480390654069780  0.7538036928294574
  0.5197259626937978  0.3161427703488400  0.8619050552325547
  0.4322886807170576  0.4067678154069796  0.9212597814922461
  0.3333221826550385  0.4904842117248052  0.9876769791666646
  0.2603218948643402  0.5860019568798478  0.0885335436046546
  0.1589581293604638  0.6615709689922511  0.1404359626938003
  0.0892784554263599  0.7581456002906961  0.2384911414728705
  0.0131233614341113  0.8342044244186013  0.3506773284883735
  0.9117669234496120  0.8986676981589170  0.4215070358527129
  0.8456211245155032  0.9858505072674433  0.5148829127906964
  0.7184391443798432  0.0897080116279056  0.5805034181201520
  0.6402844980620159  0.1730198972868209  0.6648516506782940
  0.6834897839147303  0.1682908769379878  0.8442313124999998
  0.5942618396317840  0.2133986516472888  0.9423312761627898
  0.4977168740310063  0.3335921351744204  0.0100892737403129
  0.4141163972868185  0.4184106637596869  0.0752629806201526
  0.3516458919573608  0.4919202499999997  0.1583741501938007
  0.2533328410852747  0.5793563328488389  0.2382903028100785
  0.1924516753875949  0.6847617025193813  0.3228096971899248
  0.1075990925387629  0.7479849186046508  0.4080468018410883
  0.0153868788759723  0.8112773207364370  0.5084458498062006
  0.9038171250000033  0.9081634127906995  0.5996578032945763
  0.8423323052325600  0.0008810993217025  0.6761363110465126
  0.7346851216085284  0.0641456405038738  0.7344694665697702
  0.7547894966085238  0.0776644951550409  0.9238614292635674
  0.6928635116279054  0.1593387136627911  0.0244867892441860
  0.5770754583333328  0.2301741022286805  0.1024935188953506
  0.4948486782945736  0.3156427485465088  0.1879980639534864
  0.4322386109496108  0.4183872524224839  0.2480554156976780
  0.3264902228682161  0.4987476564922488  0.3223463880813924
  0.2429176627906955  0.5866386506782959  0.4161634660852727
  0.1395581967054298  0.6679190392441825  0.5047423691860473
  0.0836986443798438  0.7431815111434119  0.5810759694767427
  0.0034523313953514  0.8233324665697666  0.6658303531976770
  0.9230866778100761  0.9137979641472853  0.7317748667635655
  0.8505735494186055  0.0129842398255846  0.8349724408914696
  0.8473387621124004  0.0042765406976741  0.0061738827519378
  0.7814707335271294  0.0836656613372071  0.0993383817829425
  0.6867554278100769  0.1761078788759676  0.1718191143410834
  0.5628016075581428  0.2296031690891454  0.2574669937015486
  0.4768207466085244  0.3163295164728694  0.3341883396317797
  0.4141730794573633  0.4319580072674398  0.4134203420542661
  0.3476381908914732  0.5021037766472887  0.4973843696705416
  0.2543666695736420  0.5847030867248080  0.5541577722868212
  0.1774745571705409  0.6712294224806215  0.6836562030038777
  0.0673903202519384  0.7519454200581421  0.7406203764534851
  0.9920290910852714  0.8189963856589131  0.8108052873062022
  0.8961446879844956  0.9177903963178267  0.9228376017441846
 
  0.00000000E+00  0.00000000E+00  0.00000000E+00
  0.00000000E+00  0.00000000E+00  0.00000000E+00
  0.00000000E+00  0.00000000E+00  0.00000000E+00
  0.00000000E+00  0.00000000E+00  0.00000000E+00
  0.00000000E+00  0.00000000E+00  0.00000000E+00
  0.00000000E+00  0.00000000E+00  0.00000000E+00
  0.00000000E+00  0.00000000E+00  0.00000000E+00
  0.00000000E+00  0.00000000E+00  0.00000000E+00
  0.00000000E+00  0.00000000E+00  0.00000000E+00
  0.00000000E+00  0.00000000E+00  0.00000000E+00
  0.00000000E+00  0.00000000E+00  0.00000000E+00
  0.00000000E+00  0.00000000E+00  0.00000000E+00
  0.00000000E+00  0.00000000E+00  0.00000000E+00
  0.00000000E+00  0.00000000E+00  0.00000000E+00
  0.00000000E+00  0.00000000E+00  0.00000000E+00
  0.00000000E+00  0.00000000E+00  0.00000000E+00
  0.00000000E+00  0.00000000E+00  0.00000000E+00
  0.00000000E+00  0.00000000E+00  0.00000000E+00
  0.00000000E+00  0.00000000E+00  0.00000000E+00
  0.00000000E+00  0.00000000E+00  0.00000000E+00
  0.00000000E+00  0.00000000E+00  0.00000000E+00
  0.00000000E+00  0.00000000E+00  0.00000000E+00
  0.00000000E+00  0.00000000E+00  0.00000000E+00
  0.00000000E+00  0.00000000E+00  0.00000000E+00
  0.00000000E+00  0.00000000E+00  0.00000000E+00
  0.00000000E+00  0.00000000E+00  0.00000000E+00
  0.00000000E+00  0.00000000E+00  0.00000000E+00
  0.00000000E+00  0.00000000E+00  0.00000000E+00
  0.00000000E+00  0.00000000E+00  0.00000000E+00
  0.00000000E+00  0.00000000E+00  0.00000000E+00
  0.00000000E+00  0.00000000E+00  0.00000000E+00
  0.00000000E+00  0.00000000E+00  0.00000000E+00
  0.00000000E+00  0.00000000E+00  0.00000000E+00
  0.00000000E+00  0.00000000E+00  0.00000000E+00
  0.00000000E+00  0.00000000E+00  0.00000000E+00
  0.00000000E+00  0.00000000E+00  0.00000000E+00
  0.00000000E+00  0.00000000E+00  0.00000000E+00
  0.00000000E+00  0.00000000E+00  0.00000000E+00
  0.00000000E+00  0.00000000E+00  0.00000000E+00
  0.00000000E+00  0.00000000E+00  0.00000000E+00
  0.00000000E+00  0.00000000E+00  0.00000000E+00
  0.00000000E+00  0.00000000E+00  0.00000000E+00
  0.00000000E+00  0.00000000E+00  0.00000000E+00
  0.00000000E+00  0.00000000E+00  0.00000000E+00
  0.00000000E+00  0.00000000E+00  0.00000000E+00
  0.00000000E+00  0.00000000E+00  0.00000000E+00
  0.00000000E+00  0.00000000E+00  0.00000000E+00
  0.00000000E+00  0.00000000E+00  0.00000000E+00
  0.00000000E+00  0.00000000E+00  0.00000000E+00
  0.00000000E+00  0.00000000E+00  0.00000000E+00
  0.00000000E+00  0.00000000E+00  0.00000000E+00
  0.00000000E+00  0.00000000E+00  0.00000000E+00
  0.00000000E+00  0.00000000E+00  0.00000000E+00
  0.00000000E+00  0.00000000E+00  0.00000000E+00
  0.00000000E+00  0.00000000E+00  0.00000000E+00
  0.00000000E+00  0.00000000E+00  0.00000000E+00
  0.00000000E+00  0.00000000E+00  0.00000000E+00
  0.00000000E+00  0.00000000E+00  0.00000000E+00
  0.00000000E+00  0.00000000E+00  0.00000000E+00
  0.00000000E+00  0.00000000E+00  0.00000000E+00
  0.00000000E+00  0.00000000E+00  0.00000000E+00
  0.00000000E+00  0.00000000E+00  0.00000000E+00
  0.00000000E+00  0.00000000E+00  0.00000000E+00
  0.00000000E+00  0.00000000E+00  0.00000000E+00
  0.00000000E+00  0.00000000E+00  0.00000000E+00
  0.00000000E+00  0.00000000E+00  0.00000000E+00
  0.00000000E+00  0.00000000E+00  0.00000000E+00
  0.00000000E+00  0.00000000E+00  0.00000000E+00