Li 
 1.0000000000000000
    20.6400000000000006    0.0000000000000000    0.0000000000000000
     0.0000000000000000   20.6400000000000006    0.0000000000000000
     0.0000000000000000    0.0000000000000000   20.6400000000000006
 Li 
 432
Cartesian
 -0.1549790700000000  0.0581691300000000 -0.1767611100000000
 18.7717367099999990  2.2509767200000002  1.6569746299999999
 17.1151830499999988  3.8612555899999998  3.8230983500000000
 15.7868711499999996  5.2223932499999997  4.6367049400000004
 13.7913075999999997  6.6522007199999997  6.6020818900000000
 11.8469711499999999  8.0790294399999993  8.5382531799999999
 10.5216042099999996 10.4739436099999992 10.1591569499999999
  8.7430806000000008 12.4114036799999994 12.3109331900000001
  6.5697919799999998 13.8624060100000008 13.2320252400000005
  4.7412013799999997 16.0071530300000013 15.3967374800000005
  3.2088361299999999 17.1895664100000012 16.9960730899999994
  1.5585629299999999 19.0391564100000004 18.5090186099999983
  1.6793376099999999 19.0634669000000017  1.6407944400000001
  0.3122091100000000  0.2618750500000000  3.6738513799999999
 19.0197140599999983  1.6600194100000001  5.4406570600000004
 17.6635287199999986  3.6174083900000000  7.1392070600000004
 15.4340833199999992  5.4064394800000004  8.3818290199999996
 13.7132649900000008  6.7536893899999999 10.0701152999999994
 12.0688548200000003  8.8044644200000004 11.8405061699999994
 10.7254804000000004 10.2702749099999995 13.4705845300000000
  8.2558767399999997 11.6754449200000003 14.9807734200000002
  6.6465811600000002 13.9982081600000008 17.0934404399999984
  4.9610689800000003 15.4204503499999994 18.8820835699999989
  2.9533944399999998 17.3929010899999987 -0.0709544400000000
  4.1018489899999997 17.1043468599999997  3.0225284700000001
  1.9109226200000000 19.2791032099999988  5.1018886300000004
 -0.0444593200000000  0.2523078300000000  7.0626984899999998
 19.2040486500000007  1.7572832000000000  9.0194919500000008
 16.8970114500000008  3.5107432799999998 10.1429286600000008
 15.2224133100000003  5.3187341200000002 12.2304183599999998
 13.7249900999999994  7.2296446200000002 13.3906636100000007
 11.4648027599999995  8.9617738399999993 15.8289296299999993
 10.3501882100000007 10.4318266699999995 17.3215522700000015
  8.5160338299999996 12.4834813699999998 18.7365037799999996
  6.4928096100000001 13.9213292499999994 20.4174038700000011
  5.2947030100000001 15.3788625299999993  1.0420957000000000
  5.2111311999999996 15.2114924100000000  4.7169258300000001
  3.6179409300000001 17.2397110600000012  6.6676765600000003
  1.4269128200000001 19.0489437099999996  8.3515039899999994
 -0.2699109800000000 -0.4125743200000000 10.2981761100000000
 18.9949130900000007  1.8587217400000000 12.1809867500000006
 16.8703658800000014  3.2832544900000000 13.6654673599999992
 15.2881529399999998  4.9944772799999999 15.5082473099999998
 13.3840194199999996  7.1739875700000004 17.6027780199999988
 12.4842868899999999  8.5898185500000004 18.7691476500000007
 10.2295584700000006 10.4893567399999998 -0.0798192800000000
  7.9363400000000004 12.4183463399999994  1.1860322100000000
  6.8640114600000004 13.7293748000000004  3.5748730900000001
  6.7122514300000002 13.8440863699999994  6.2414226700000004
  5.2061037800000003 15.2105698300000007  9.1057016799999992
  2.9926369700000000 17.8271646799999992  9.8942628599999995
  1.2107112900000001 18.9251083300000005 11.9294055399999994
 -0.2473436800000000 -0.1980802600000000 13.5316564499999998
 18.9005329700000004  1.6470617299999999 15.5985790699999995
 17.0359730300000010  3.5220253000000001 17.1262614400000004
 15.7088974199999996  5.5739422999999997 19.3587543500000017
 13.5068230899999993  6.7297155999999996  0.0543435800000000
 11.8378751999999992  8.5248808199999999  2.2416898800000000
 10.2834911800000004 10.5131515300000000  3.3111784700000002
  8.6609877399999995 12.0445181199999993  5.0904314399999997
  8.6164046499999998 12.2321989900000005  8.2869983699999992
  6.7924429100000001 13.7972849800000006 10.1937220499999999
  5.1647152600000004 15.6616241699999996 11.6749806800000009
  3.3168301300000000 17.0962345599999992 13.6469364300000002
  1.2291852500000000 18.8313315500000016 15.4446688900000009
 -0.0596278600000000  0.0320000400000000 17.3226430499999999
 18.5401520099999999  1.8670405000000001 19.1159576099999988
 17.3057848800000009  3.4632621800000001 20.4766797499999988
 15.8324702199999994  5.5029900700000001  1.7014915500000001
 13.5387301299999994  6.6708848200000004  3.7741244599999999
 12.2306514100000001  8.5874761999999993  4.9929733000000001
 10.1655218000000005 10.7637403900000006  6.5682369700000001
  1.6019105899999999  1.8296888200000001 18.5424968800000016
  0.2373548000000000  3.6152706900000000 -0.0483652700000000
 19.2600430399999993  5.3396192899999999  2.1186101900000001
 17.4598347499999988  7.3598338099999996  3.4957644800000001
 16.1073222399999985  8.5709397700000007  5.2152447899999999
 13.9955759400000002 10.3519738199999995  6.7377088199999999
 12.2170991099999995 12.0385191799999998  8.6460610899999999
 10.3323557099999999 13.5387428599999993 10.2920143599999996
  8.7508196300000005 15.4300896699999992 11.9422365100000007
  6.9588152399999998 17.0603652100000005 13.8493355099999995
  5.1748814799999998 18.3978673099999988 15.2464647099999997
  3.4362643899999998 -0.0346579200000000 16.7138682400000000
  3.3642490399999998  0.4624773000000000 -0.2614750400000000
  2.1195192100000000  2.0005756799999999  1.7584707600000000
 -0.0168996800000000  3.8011821800000001  3.6407804300000000
 19.3283537800000005  5.3263014100000001  5.1666666399999999
 17.6183461699999988  6.5270002299999996  7.0740135999999998
 15.5773046100000006  8.3834684300000006  8.4501059600000001
 13.6605548199999998 10.6777161100000004 10.2221275200000008
 11.9414707000000000 11.9013460999999996 12.1390811299999992
 10.3993762400000005 13.7482877099999996 13.7196406799999995
  8.5331008199999996 15.4179749699999995 15.1785043200000000
  6.9977221800000002 17.3104774600000013 17.6329424900000014
  4.8678729599999997 19.0406884500000011 18.9032269900000003
  5.1099234800000000 18.9712677599999999  1.3713681200000001
  3.6338880499999999  0.1462507100000000  3.2485097500000002
  1.9190240400000000  1.7236564700000001  5.0274351900000003
  0.4091409100000000  3.8342574200000001  6.8994109999999997
 19.2841320399999994  5.1321747100000001  8.4915133199999993
 17.0549037800000001  6.4018672499999996 10.2583774499999993
 15.3396968699999992  8.5364371099999996 11.8409054200000003
 14.0533630100000000 10.2188852400000005 14.1015341799999998
 12.1016741400000001 11.8388163599999992 15.7097274599999999
 10.4323996999999995 13.6942047900000006 17.0902207900000001
  8.2266550800000005 14.9927171399999999 19.4146823899999994
  6.8893508900000002 17.8543708800000012 20.3699937599999998
  7.2252262800000002 16.9935912999999985  3.0366408100000002
  5.4140797599999999 18.7329031599999993  4.8164898899999997
  3.6109299699999999  0.0023515700000000  6.5591440600000004
  2.0336879799999998  1.5021000499999999  8.7899644299999995
 -0.4433463500000000  3.3890437900000001 10.4184191399999992
 18.6803774199999992  5.3579343000000001 12.0438118900000006
 17.2368428999999992  6.8625979499999996 13.8748714199999998
 15.3128581100000005  8.3277463800000007 15.5971053699999995
 14.2842393500000000 10.1641613399999997 17.1007951799999987
 12.0157244300000006 12.0534074499999999 19.3865112099999983
 10.9625810700000006 13.6760333200000002 20.5978264300000014
  8.1645363900000003 15.1131933699999994  1.0634350800000001
  9.0002136299999993 15.6901658499999996  5.1264665100000002
  7.0696947200000002 17.1371870400000006  6.4805666799999999
  5.1695872999999999 18.7332463599999990  7.9393426800000002
  3.1365759400000002 -0.6081545100000000 10.3602063999999991
  1.5623064200000001  1.8127594499999999 11.9252642800000004
 -0.4790791000000000  3.5913432500000000 13.9675612099999995
 18.7190301000000012  5.1319649299999996 15.8313667799999997
 17.5938293100000003  7.1450725300000002 17.4846173100000009
 15.6613293000000002  8.3539352900000008 19.3119867800000016
 13.7642149400000005 10.1102798499999995 20.4280768399999992
 12.0758490300000005 11.5526655599999994  1.3921263300000000
  9.8732397600000006 13.5839951699999997  2.8324920200000001
 10.3405431199999995 14.0506193699999997  6.5482513999999998
  8.7533926799999993 15.8396936000000004  8.9394458300000004
  7.1088428300000004 17.2351513800000014 10.6195375399999996
  4.6943127300000000 18.9552572999999995 11.7587550800000002
  3.1639073799999999 -0.4371446200000000 13.6951158900000003
  1.2969959400000000  1.8010431099999999 15.2220233900000004
 -0.1272641600000000  3.4053802100000001 17.1519569599999997
 18.8544063599999987  5.4626825200000004 18.7691200900000013
 17.5838348000000018  6.9254898499999999 20.8204212200000001
 15.4451947799999996  8.4311513900000001  1.7283860099999999
 13.9596177499999996  9.7794966199999998  4.0218141799999998
 12.1187802900000001 12.1848455599999994  5.4280043500000001
  3.2233155099999999  3.6980755099999998 17.1119024000000017
  1.7115461599999999  5.5091530799999999 19.1879100700000009
 -0.3067253200000000  6.6169040299999997 -0.1015518600000000
 19.5014794400000007  9.1248302300000006  1.7226227500000000
 17.1703122300000004 10.1448596700000007  3.2067912700000001
 15.5722569300000000 12.2349070799999993  5.5232303600000003
 13.2413221599999993 13.9230217900000000  7.0536350900000002
 12.1520093300000003 16.1600175700000008  8.5201749000000007
 10.4184010800000006 17.4770605199999984 10.7208072300000001
  8.5393985600000004 19.0462200599999996 12.2497937900000000
  6.5446274899999999 20.4433951000000000 13.8056420499999994
  5.0322648200000000  1.8751587999999999 15.4310382500000003
  5.0175510599999997  1.8161983200000000 18.5048934600000017
  3.6046913500000000  3.4156731100000002  0.0558372800000000
  1.8416139800000000  5.1035940399999999  1.7272637799999999
  0.0254137500000000  7.1176037499999998  3.7711012699999999
 18.8304844600000010  8.5157422000000000  5.1872312799999998
 17.1943450099999993 10.1709721900000005  7.2306346100000001
 15.3941221499999994 12.2235818100000007  8.3381814599999995
 13.3228901000000004 13.5257605200000004 10.2151945600000005
 12.0314739700000004 15.4817040099999996 12.0132901000000007
 10.3033622400000002 17.1508235999999989 13.6533640900000002
  8.8897864200000001 18.5709564500000006 15.2377556700000003
  7.0695276399999996 20.4628570100000005 17.1064712700000001
  6.5186643799999997 -0.0105152500000000 -0.2400177700000000
  5.5365657400000003  2.0704540100000002  1.4886715900000000
  3.5284228899999999  3.4341804900000001  3.4114677000000002
  2.0491521900000000  5.8155425599999999  5.4257727300000003
 -0.3247797800000000  7.3293885400000001  6.6775918599999997
 18.8339660000000002  8.6839931999999997  8.9096637800000007
 16.9969773999999987 10.3089769800000006  9.8967850300000002
 15.5684550599999998 12.3895695999999997 12.0563959599999997
 13.5814606300000005 13.6561127300000003 13.7531238200000008
 12.4158829999999991 15.4335735599999992 15.2759176700000001
 10.2746381499999995 16.8465531199999994 17.6520493999999992
  8.7922972900000005 18.9906223700000005 19.2550144199999984
  8.5901628399999996 19.1824836699999999  1.7071123399999999
  6.3740960700000002 -0.0796078400000000  3.3600777100000001
  5.3615921799999997  2.0140806200000001  5.0021463700000002
  3.4502723400000002  3.4895355299999999  7.4473209499999999
  1.4019294099999999  5.5177278699999999  9.1151006100000007
 -0.2184860800000000  6.8668256899999998 10.8099213600000006
 18.5513977200000006  8.7456363800000005 11.6672590799999991
 16.8870646099999995 10.4235216499999996 13.6512037500000005
 15.2474751800000003 12.3368826200000008 15.2160606299999994
 13.7984814999999994 13.6358017500000006 17.3934492200000008
 12.1775576099999991 15.4773818999999992 19.1226556599999995
  9.7774152900000004 17.0555144100000007 20.6946776099999994
 10.3375166299999997 16.8797168199999987  3.0069993699999999
  8.8345743199999998 19.2710392299999995  5.0817464899999996
  6.9920049600000000 -0.1883175300000000  6.8054136500000002
  5.0875956300000000  1.2398781000000001  9.0198943899999993
  3.6306840600000001  3.5437230700000000 10.5777754500000007
  1.4159562400000001  4.9688572700000000 12.4217364600000000
 -0.6584284700000000  7.1845457399999999 13.9248779400000000
 18.5875183399999990  8.9257762700000001 15.5935577900000002
 17.0188966400000012 10.5712581799999992 17.2945455899999985
 15.1255625499999997 11.9750507800000001 19.5300568000000005
 13.7062651599999992 14.0473490800000000 20.8501884900000007
 12.0094215099999992 15.3684198300000006  1.8016114100000000
 11.9671319000000000 15.5897521999999995  5.1747832300000001
 10.1967072400000003 17.4455062100000013  6.8095278900000000
  8.3462421700000000 18.9782199700000014  8.5987915800000003
  7.0933750299999998 -0.0892805000000000 10.5318758799999994
  4.9692149499999996  1.4179423700000000 12.2894336099999997
  3.2903119200000002  3.5377638000000000 13.5417516399999993
  1.4244156699999999  5.1352630000000001 15.2927045400000008
 -0.1848670800000000  7.3639485300000000 17.4265564099999999
 19.4501629800000018  9.0771345599999993 19.0865355200000018
 17.1157141999999993 10.4476195700000005 21.1286470800000004
 15.1052691299999999 11.9938917299999996  1.8161526299999999
 13.7420118999999996 13.7305138099999997  3.4376338600000000
  5.4527527600000001  4.7863065699999998 15.0141818800000006
  3.2609052799999998  6.5264060700000002 17.4191425700000018
  1.8317002400000000  8.4973085299999997 19.2909786399999987
  0.1324517500000000 10.3716480099999995 -0.2490321200000000
 18.7319073699999983 11.9403034600000009  1.5716435700000000
 16.8511590399999989 13.4253056799999992  3.8341612299999999
 15.3455374100000004 15.5788631700000000  5.1864772800000001
 13.5291853300000007 17.5508044299999995  6.8942838499999999
 11.6411087099999992 18.8649575700000014  8.2443472900000003
  9.9285303000000003 -0.4826752000000000 10.5737729100000006
  8.9273784700000007  1.7494120700000000 12.6020404500000005
  7.0487002399999996  3.1754174399999999 13.6557072999999995
  6.9583260300000003  3.4042311700000001 16.9512518900000018
  5.0394338100000002  5.1016469899999999 18.7405969900000002
  3.2413120900000001  6.8979467000000003  0.0788302300000000
  1.8083767900000001  8.5697654900000000  1.7068179900000000
  0.2926304700000000 10.9131941000000001  4.1722833399999999
 18.8797687299999986 12.1379148899999993  5.4546945400000002
 17.1603535100000002 13.8933339799999995  7.0243741000000002
 15.2364305400000006 15.5037820300000000  8.9941931299999993
 13.5833991899999997 17.3897514400000013 10.3457865400000006
 11.9500675699999999 18.9076350300000016 12.3134431899999992
 10.4012458900000002 20.6103176999999995 13.9783737299999995
  8.7073595099999999  1.6123173099999999 15.5066343300000007
  8.6159739099999992  1.8839891900000001 18.5597898400000005
  6.6972129699999998  3.4690210499999998 -0.4215410300000000
  5.0178908199999999  5.1963025800000002  1.6787058699999999
  3.6712772000000000  7.1353813500000003  3.4668240300000002
  2.2761484500000000  8.6306892299999998  5.4917548299999996
  0.1974542100000000 10.0633459500000004  7.0517256399999999
 19.2137805800000017 11.6371236899999992  8.5873096499999999
 17.1660329500000017 13.4348850199999994 10.0065063700000003
 15.4178996099999992 15.2573157899999998 12.0114060600000006
 13.5279918899999991 17.2115867300000005 13.7462390200000009
 11.7738536299999996 18.5927280500000016 15.2321025599999995
 10.6504162400000002 -0.0515849600000000 17.5192894400000014
 10.1933591900000007  0.2853007100000000  0.2258252000000000
  7.9564130999999998  1.7130185800000000  1.9399749399999999
  7.0792031700000004  3.6787069799999998  3.2041401600000001
  5.4346426699999997  4.9842477000000001  5.3864179500000002
  4.3499409299999998  6.9690399400000000  6.8877606199999999
  1.8319623500000000  7.9534599600000000  8.6785154299999991
  0.5319349200000000 10.1859313999999994 10.1884513600000002
 18.9603442999999992 11.8062395200000001 11.7890029300000005
 17.0239438400000012 13.5014082700000007 13.7441594899999995
 15.2944209099999995 15.8879105200000001 15.7008282000000001
 13.7877710300000000 17.2580317900000004 17.4464830100000015
 11.7528565000000000 18.8087678300000007 19.3331959500000004
 11.8215758300000005 18.9756044700000004  1.4277683600000000
 10.4163988500000002 -0.1164525700000000  3.7129755000000002
  9.0104365299999998  1.5277789399999999  4.6935426400000004
  7.2380151899999996  2.7501055200000000  7.2598466300000002
  5.6753933500000002  5.0191883300000004  8.8264960899999991
  3.7498808200000000  6.7488386299999998 10.7321877600000004
  1.8516366399999999  8.3636180000000007 11.7642180700000001
  0.1080328600000000  9.9160745800000001 13.5097892599999998
 18.8090365000000013 12.4744108899999997 15.8041196700000004
 17.1323433799999982 13.6933863700000007 17.6684945599999992
 15.4839882499999995 15.8772932800000000 18.6932945500000010
 13.9477722300000000 17.1768204299999994  0.3660354500000000
 13.8227676499999994 17.4252059400000014  3.6197198899999998
 11.9640460199999996 18.6867303000000007  4.8379070600000000
 10.2689151200000008  0.0297803900000000  6.7015675600000000
  8.8806189799999995  1.2793462200000001  8.8484106400000009
  7.3143360700000004  3.1629468400000000 10.3328100299999992
  5.7766097800000002  4.7747777200000003 12.1050931599999991
  3.2844950800000001  6.5565223799999997 13.9402159099999992
  1.8504838299999999  8.3585682299999995 15.2660655300000005
  0.2592963600000000 10.4527244600000007 17.2055642300000002
 18.8605778800000010 11.9279207399999994 19.2002526300000014
 17.0729428600000013 13.9981926399999992 -0.0465720900000000
 15.8757959000000000 15.3898517600000009  1.8695101199999999
  7.1419522400000002  6.8636978600000003 13.7064594100000008
  5.3400621199999998  8.3667548000000007 15.4250562799999997
  3.3508024000000001  9.9701690200000002 16.8080577399999989
  1.7012427600000000 12.1956090800000005 18.8947041599999999
 -0.3155243300000000 13.9985425899999996 -0.2805424600000000
 18.7974026800000011 15.4794772100000007  2.2399234099999998
 16.7451206699999986 17.1547379100000015  3.4986274800000001
 15.7355112399999992 19.2554004600000006  5.2976710400000000
 13.5844789699999993  0.1044953400000000  6.7685739500000004
 11.7992087300000001  1.8132437699999999  8.7094179100000009
 10.2689326800000007  3.3303034199999999 10.4108020900000007
  8.9812515699999995  5.0747770100000000 12.5175588900000001
  8.9839295700000008  4.9722953600000004 15.1229501299999995
  6.9721548799999997  6.6787095100000000 17.2430989399999994
  5.1230206500000000  8.8264277199999999 18.5038447700000006
  3.4046464900000002 10.1510001299999999 -0.4799959600000000
  1.7435425300000000 12.3928515899999994  1.4810940100000001
  0.1958756300000000 13.9401177799999996  3.4535182400000002
 18.9785245899999993 15.3377595200000005  5.4768582600000002
 17.2460984199999992 16.9860682899999986  6.7520491600000003
 15.4898428900000003 18.5055346800000002  8.4107604400000007
 13.4039535000000001 -0.4662518600000000 10.1063365800000007
 12.0673353199999998  1.1839964700000001 11.4640863700000004
 11.0366921399999995  3.3630269199999998 13.7628220100000007
 10.3315865400000000  3.2656562000000000 16.8476495700000015
  8.5109214299999998  5.1906938100000000 18.9028017400000010
  6.3247662399999998  7.2367525400000003 -0.0990719600000000
  5.1974093899999998  9.0551788599999998  1.7018517399999999
  3.4482716299999998 10.4935238300000009  2.7899686400000001
  1.8196445500000000 12.1953892199999991  5.4450694600000000
  0.4760779000000000 13.6855292800000008  6.9617648699999997
 18.7558623199999985 15.6549681500000002  8.9133243400000008
 17.1751150099999990 17.2652645000000007 10.4311584300000000
 15.2187809499999993 19.3298279899999983 12.3513658599999996
 13.4599111600000008  0.0000406600000000 13.6065604800000006
 12.0192846099999997  1.6813415800000000 16.1940152899999994
 11.9396000600000001  1.2813829999999999 18.9414125899999988
  9.8842897700000005  3.5381364099999999 -0.1843139900000000
  8.3024515000000001  5.2439606400000001  1.8603902699999999
  6.8747237400000003  6.9916483400000002  3.3828540999999999
  5.6877013300000003  8.9013246099999996  4.9131546400000001
  3.1249204300000000 10.5220863700000002  6.7549380599999997
  1.8089423800000000 11.9976211900000003  8.5382687199999996
  0.1298195500000000 13.7690080399999992 10.3353747200000008
 18.9509301400000005 15.4516172300000001 12.1263807400000001
 16.8816796499999988 17.0846517700000007 13.6236709900000008
 15.5062774500000007 18.8943239399999996 15.6225004100000007
 13.6948749200000002 -0.3466000400000000 17.5984375899999996
 14.1570819100000005  0.0051809500000000  0.2424978900000000
 11.8871793399999994  1.8533780700000000  1.5711217900000001
 10.0666694299999993  3.2158421000000001  3.4682815900000001
  8.4174241199999997  5.0793203399999998  5.3898589000000001
  7.2654626400000000  6.8192136400000001  6.8603182699999996
  5.0229166100000002  8.5595242799999998  8.4659930600000006
  3.7026327200000000 10.1918746299999992 10.0329917599999998
  1.5911558200000000 11.9681107999999998 11.9436819100000005
 -0.1659118800000000 13.6413388999999992 14.2511248500000001
 18.7222754299999998 15.5491825899999991 15.5922983399999993
 17.1578634000000001 17.5247335100000008 16.8620419199999994
 15.6827546400000006 19.0602891399999983 18.4411023000000007
 15.4384521800000005 19.4162606999999987  2.0768368200000000
 13.5807435600000002 -0.0011635200000000  3.4230662600000001
 12.2656818100000002  2.1115567999999998  4.9762147600000004
 10.3027725100000005  3.1437678199999999  6.9933783600000003
  8.6575527300000008  4.8557209200000004  8.6467144900000008
  7.2940227499999999  6.8422146899999996 10.6119416300000005
  4.8835397900000004  8.4903781600000006 11.9804909800000008
  3.0806443200000002 10.1779650200000003 13.4709463800000009
  2.0019060700000000 11.9271975900000005 15.1330973100000001
 -0.0473036900000000 13.8162391600000003 17.2090116699999989
 18.5608558700000010 15.8182970600000008 18.7464628200000014
 17.2012329599999987 17.5161297400000002  0.2037783300000000
  9.0240093300000002  8.4695414800000002 12.0990957899999998
  6.7906324099999997  9.6549503399999992 13.7431730800000000
  5.1209078899999998 11.6916499599999995 15.3349811400000000
  3.1788619599999999 14.0102665300000009 16.9921290800000016
  1.4426992900000000 15.8004048200000007 18.7662501699999993
 -0.2631015200000000 17.3262040100000014  0.1084663600000000
 18.8182430600000004 19.1990465099999987  2.1598467000000001
 17.4418762200000010 21.0166774300000014  3.5984840400000002
 16.0678748099999993  1.6178102500000000  5.5332247600000004
 14.3066173200000009  3.2236559499999999  6.9079127099999997
 11.8286636600000001  5.2731851399999998  8.2506619499999996
 10.1384845299999995  6.8420684300000003  9.9624250700000001
 10.8321917400000007  6.9115704700000000 13.4314908299999995
  9.3423534799999999  7.8094739300000002 15.7364883899999999
  7.3520540499999996  9.7226235899999995 16.8978306899999993
  5.1707487900000002 12.0153479999999995 18.7556651300000006
  3.0151560100000001 13.7466403199999991 -0.2112554300000000
  1.7266790000000001 15.5436759400000000  1.7246857099999999
  0.0287463100000000 17.2708137599999993  3.7957674500000000
 18.9685726700000004 18.7112215699999993  5.5436026299999996
 17.2442946699999986 20.9044748100000000  7.2346507400000002
 15.3350263099999999  1.4620147400000001  8.6601023200000000
 13.2198441599999992  3.5024177900000000 10.1289496900000007
 11.9991561299999994  5.0993266400000001 11.8807402500000006
 12.2362396499999999  5.1195263100000004 15.5585082200000002
 10.7271438700000008  6.5251867800000003 17.7897203399999988
  8.9224383700000001  8.3956877100000007 19.0148018900000011
  6.8797698499999997 10.1235941300000007 -0.2543471500000000
  5.3730439099999998 12.0950803899999997  1.8273323400000001
  3.2808957900000002 13.6548248000000001  2.8985982699999999
  1.8427073199999999 15.6481251900000000  4.9224571600000004
  0.2708661800000000 17.2179793200000013  7.2379800599999999
 18.8188692999999994 18.5485012900000008  8.6999052199999998
 17.4536200100000016 -0.2920455300000000 10.6271833200000003
 14.8285839399999997  1.8515733599999999 11.9815905500000000
 13.2154720399999999  3.5711306800000000 13.7225380700000006
 14.1072291399999994  3.4735236999999999 17.4249342899999995
 12.2655643699999999  4.4045481700000000 19.4497175400000017
 10.2728762800000002  6.8853416699999999  0.2082426100000000
  8.5473624400000006  8.6359960999999998  1.5534279200000001
  7.2579712100000000 10.1532339599999997  3.2688424600000001
  5.2287898400000001 11.9579147100000007  4.9183118500000003
  3.9722025799999998 14.1334815400000000  6.6627921499999996
  2.2208452699999999 15.4384087200000000  8.4220859899999994
  0.3175851800000000 16.7447638999999988 10.4943223400000001
 18.6547854599999994 18.7444928399999995 12.3769370599999995
 17.3857387800000005 20.6581858899999986 13.9554534599999993
 15.1639009100000006  1.3239660200000001 15.1594497900000000
 15.5788552100000004  1.6029951800000000 19.0684998999999991
 14.3007028799999993  3.2887510500000001  0.5054073300000000
 11.9108374599999998  4.7507934699999996  2.1154662300000000
 10.2136767200000005  6.5148663300000003  3.8802800400000002
  8.9214049299999996  8.6355128899999993  5.1198637800000002
  6.7387582000000004 10.2941516300000000  6.6532294500000004
  5.0138205600000001 12.1082217500000002  8.5896139399999996
  2.8804811799999999 13.7858489700000000 10.4178824999999993
  1.7275400200000000 15.3392663900000006 11.9934080099999996
  0.0712561200000000 16.9935821099999984 13.7427384900000007
 19.0525090299999995 18.8607899799999998 15.1038332499999992
 17.5558380599999992 20.9079947100000005 17.2338311799999993
 17.4890720500000008  0.0882678000000000  0.1274289400000000
 16.1295559399999995  1.7268592500000000  2.0503442000000001
 14.1746320299999997  3.6348666199999999  3.5463465200000002
 11.6162251800000007  4.7390094100000004  5.3141187499999996
  9.8415802100000001  6.5290412199999999  6.8976473299999999
  8.5485323599999994  8.9156132699999997  8.5329958599999998
  7.1752522599999997 10.3634219499999993 10.2660133899999995
  5.2501280599999998 12.0682717099999994 11.4378164200000008
  3.6630748600000000 13.8541752799999998 14.1106640300000006
  1.3909362100000000 15.5201534700000003 15.2864045700000002
 -0.1645195600000000 16.9040853999999996 16.7350211299999998
 18.4964263600000010 18.9431937800000014 19.0473680999999999
