Li                                      
   1.00000000000000     
    21.6720000000000006    0.0000000000000000    0.0000000000000000
     0.0000000000000000   21.6720000000000006    0.0000000000000000
     0.0000000000000000    0.0000000000000000   21.6720000000000006
   Li
   432
Direct
  0.9867755158730134  0.9860425830564807  0.9709974178663714
  0.9257375239940941  0.1047363985788081  0.0658152528608369
  0.8397247517534154  0.1674505177187129  0.1442205412513857
  0.7652576088962704  0.2628675170727206  0.2786739548726445
  0.6848395681063124  0.3400331944444446  0.3580562384643784
  0.5723460026762623  0.4172259154669646  0.4076513289036541
  0.5034919795127379  0.4826535681986002  0.5036852376338103
  0.4095457332041335  0.5930709177740852  0.5874946377814680
  0.3498447194536709  0.6547157798080505  0.6548027533222580
  0.2379051605758562  0.7318817995570299  0.7607214627168730
  0.1753625613695107  0.8202904918789216  0.8280159302325600
  0.0806012283130286  0.9117505486341813  0.9184637896825407
  0.0552709791435930  0.8788359745293448  0.0582976232004455
  0.0045156556847559  0.0093827482465869  0.1635578271502425
  0.9080772365263954  0.0811977948504961  0.2569277468623099
  0.8375531012366153  0.1711388981173840  0.3130547476005887
  0.7563665310077496  0.2327384076227403  0.4445659417681824
  0.6851880246400910  0.3420498726467329  0.5058938893503111
  0.5881274640088563  0.4091462172388347  0.5969699210963455
  0.4703810109819102  0.4813878082318226  0.6351773814138042
  0.3982725313768896  0.5493287320044260  0.7473390485418960
  0.3371453151531938  0.6385061263381289  0.8123070639534902
  0.2374248232742744  0.7179712370800999  0.8940192081949050
  0.1679893710778870  0.8368949395533392  0.9642768904577323
  0.1719514894795111  0.8753494804355881  0.1672529918789252
  0.0926576112033928  0.9109672259136232  0.2324971608527164
  0.9873692192691053  0.0083641426725762  0.3302066906607593
  0.9093396064045791  0.0974313122923576  0.4095731386120320
  0.8071932973421951  0.1873586923218866  0.5163504891103727
  0.7150239234957567  0.2484123869509034  0.5950448694167605
  0.6748785308231788  0.3274434606866024  0.6874784274640078
  0.5680268470837930  0.4471504401993371  0.7473699201734973
  0.4846142363418267  0.4971566897379134  0.8260943304725004
  0.4306107438169064  0.5694889844038400  0.8928278299187866
  0.3433696525470680  0.6412331376891842  0.9983883803986728
  0.2193920441122188  0.7738158517903315  0.0863180693983026
  0.2365475539867106  0.7544422817460301  0.2418901204318971
  0.1775892930970855  0.8248446959210014  0.3591189668696941
  0.0475960054448166  0.9058317003506815  0.3996823412698447
  0.9769015679217432  0.9992454941860487  0.4854546313215238
  0.9248873629568095  0.0622299040236243  0.5885781100036880
  0.8340550867478740  0.1744540905315617  0.6405392035806585
  0.7628825719822814  0.2678191971207085  0.7245168484680704
  0.6593379019010683  0.3285198537283165  0.8143960289774839
  0.5829863805832431  0.4285158411775569  0.9230889811738621
  0.4901806736803280  0.5051548320413417  0.0166528649870799
  0.4118851010520501  0.5865340942229622  0.1022768443152486
  0.3209094324474009  0.6680765097822103  0.1673370159653018
  0.3205396285529716  0.6703076993355452  0.3190225355297187
  0.2642164474898507  0.7440943816906582  0.4232080956995219
  0.1835477583979355  0.8355624054078987  0.5277230933923960
  0.0441837038575130  0.9257817395717964  0.5824380514027325
  0.9866126490402394  0.9932710465116301  0.7136161184939098
  0.9471051042820235  0.0998008217977144  0.7478162541528235
  0.8259951490402386  0.1660786318752301  0.8203659196197890
  0.7309211004983354  0.2587844398301939  0.9023216777408649
  0.6979053040789935  0.3120775664451827  0.0127610963455140
  0.6112689447212958  0.4020074215577694  0.0659280467884855
  0.5094158688630515  0.5088901402731665  0.1929601310446643
  0.4227061360280544  0.5959011180324865  0.2418713718161669
  0.4403079222037647  0.6190447411406410  0.3954610691214455
  0.3221383610188226  0.6595697997416039  0.4762170450350709
  0.2634737652270189  0.7315326125876709  0.6100817423403484
  0.1855238884274613  0.8643924515503869  0.6762438685861909
  0.0838759796050184  0.9080644610557371  0.7698082894979663
  0.9884562693798458  0.9727600775193821  0.8214484999077172
  0.9330819721299406  0.1202291246770031  0.9070747457548904
  0.8241854558877790  0.1921202145625713  0.9942291606681408
  0.7657016459025456  0.2838692529531173  0.1139859343853828
  0.6858760280546292  0.3291907816537503  0.1660523325027654
  0.6073437232373564  0.3865140868401653  0.2227198297342170
  0.5012089470284238  0.4738709389996316  0.3414173034329977
  0.0751089830195610  0.0775004600406035  0.8941502445551848
  0.0264304240494653  0.1850310506644490  0.9920264064230366
  0.9421648251199670  0.2324970007382774  0.0977758970099671
  0.8550896746954564  0.3166676818014054  0.1698049806201567
  0.7966278843669272  0.4005559182355114  0.2392053986710962
  0.6751843152454811  0.4769153248431124  0.3278257248984886
  0.5928599187892232  0.6063232927279429  0.4175670708748598
  0.5122369892026555  0.6760071557770360  0.5124935308231784
  0.4183046705426321  0.7354840213178306  0.5990421087116999
  0.3307013971945381  0.8021168189368737  0.6717698629568076
  0.2785652320967174  0.9031191934293119  0.7424706132336638
  0.1779417940199366  0.9599911747877456  0.8320096128645247
  0.1845270233480960  0.9874502214839396  0.0060824427833168
  0.0699348260428181  0.0709851088962736  0.0703045131967528
  0.0128871114802536  0.1495045095053555  0.1925088685861951
  0.9115518258582469  0.2324152122554466  0.2622757585825042
  0.8521719449058693  0.3191815360834269  0.3459044019933586
  0.7441274903100776  0.4258547692875609  0.4205994813584368
  0.6762070454964899  0.4830263755075705  0.4770302265596129
  0.5926362467700272  0.5670345704134334  0.5742291542081972
  0.4946562592284991  0.6496215097822073  0.6671254346622391
  0.4195701347360625  0.7275868738464411  0.7714717266519031
  0.3485612393872302  0.8231009514581018  0.8531349386304896
  0.2532922425249140  0.8951904346622399  0.9131193973791056
  0.2825868480066447  0.9053150115356203  0.0676703492986377
  0.1725653063861188  0.9788099492432636  0.1478676019749017
  0.0922599510889626  0.0678133794758224  0.2558925272240700
  0.0197699261720174  0.1626442081949051  0.3231334426910308
  0.9081323251199720  0.2320581852159478  0.4078709154669653
  0.8582149035621995  0.3130309533038016  0.4912566505167959
  0.7846545542635681  0.4089399372462168  0.5755489239571787
  0.7035247600590608  0.4914882170542612  0.6365252565522326
  0.5842885072905162  0.5684143664636423  0.7176887264673297
  0.5113714405684746  0.6388058434846826  0.8437675023071236
  0.4160555052602462  0.7247810188261354  0.9224254143595445
  0.3404774764673277  0.8308703211517141  0.9790096530084895
  0.3270368544665914  0.8396740803802132  0.1549803815983779
  0.2377282175156878  0.8902750941306721  0.2455747508305635
  0.1329556298449646  0.9776712679955679  0.3539870228866775
  0.0703004549649293  0.0618900050756750  0.4205273237356977
  0.9721203202288677  0.1817581210778911  0.5073783697858971
  0.9384468890734610  0.2830664193429300  0.5900241638981143
  0.8286997286821673  0.3521767727943867  0.6710847923588048
  0.7401020598006625  0.4201939982465888  0.7448212901439675
  0.6672819818198619  0.4937179111295649  0.8289856326135094
  0.5842108776301203  0.5493706201550381  0.8999253110003664
  0.5229311281838349  0.6737663252122559  0.0104385515872991
  0.4076107738095232  0.7463416814322628  0.1065610728128448
  0.4142110372831311  0.7516020727205586  0.2233482618124754
  0.3628833905500173  0.8029650152270236  0.3285488921188602
  0.2707092363418226  0.9033179798818765  0.4152937638427474
  0.1441136069582853  0.9642581649132538  0.5186174783130326
  0.0701116408268732  0.0596277579365108  0.5804884270025852
  0.0089384477667025  0.1721262546142484  0.6327717990956074
  0.8991195408822463  0.2695064797895910  0.7425648920265786
  0.8298063478220712  0.3519636886304909  0.8316531063122952
  0.7438549852344067  0.4165650655223345  0.9278267751015150
  0.6718426167404914  0.4977944130675525  0.0240293692321885
  0.6100114525655229  0.5668354803433004  0.0826331261535600
  0.5198465979143592  0.6237617635658950  0.1519259426910295
  0.5210959782207425  0.6798166029900301  0.3210243923034355
  0.4241441214470285  0.7496798094315267  0.3960437343115544
  0.3527506981358428  0.8144230398671084  0.5025977717792571
  0.2557418761535644  0.9078842340346966  0.5620782996493148
  0.1746407373569596  0.9858935594315241  0.6822632848837173
  0.1083189844038372  0.0618977740863755  0.7350166306755241
  0.0245736863233645  0.1562194661314109  0.7818048320413453
  0.9350002791620540  0.2431588335179029  0.8989978091546718
  0.8526630703211495  0.3277489424141748  0.9928163533591743
  0.7589476758028795  0.4159994975083023  0.0676417714101163
  0.6758922056109284  0.5163906990586966  0.1702857853451434
  0.5908244790513137  0.5722150369139882  0.2703084210040601
  0.1756742045035082  0.1621363787375429  0.8331466246769992
  0.0902771008674819  0.2179373500369124  0.8914182978036180
  0.9991801019749005  0.3119325479881851  0.9947862587670713
  0.9197123315799161  0.4123326458102596  0.0963443429309692
  0.8444001988741263  0.5015676679586534  0.1936606160022123
  0.7658681755260233  0.5922224192506462  0.2469085358988536
  0.6746399935400547  0.6751670044296816  0.3462661004983403
  0.5692138344407525  0.7368601790328526  0.4299948085086740
  0.5251527390180897  0.8069578617571054  0.5105053492986329
  0.4057127717792568  0.8996893000184585  0.5859144527500888
  0.3456022614433394  0.9992216865079371  0.6826419121447032
  0.2742683471760827  0.0808430477113333  0.7684281704503491
  0.2501507327427106  0.0730176684200785  0.9067361803248417
  0.1588481399963086  0.1507081081579926  0.9968238612033957
  0.0988626476559631  0.2487972858988527  0.1087845371908429
  0.0145513695090429  0.3082255652454791  0.1702074833887011
  0.9414885580472472  0.3952408324104866  0.2707983204134337
  0.8303091528239221  0.5135032479697301  0.3561388275193806
  0.7465069232189023  0.5946428940568467  0.4268920247323749
  0.6526105015688444  0.6346542972499094  0.4980573426541142
  0.5832692335732759  0.7035596954595817  0.6120398154300446
  0.4802656261535603  0.8058409325396809  0.6834681473791093
  0.4383641288298250  0.9142045630306370  0.7896206321520864
  0.3423766223698763  0.0214607212070845  0.8281594485972690
  0.3130568189368788  0.0096071705426368  0.9890416449797002
  0.2699979475821337  0.0906536590992957  0.0723586009597668
  0.1891934611480224  0.1583087559985259  0.1628831570690323
  0.1005627796234805  0.2412525775193828  0.2727339945551890
  0.0048700304540432  0.3187595976375022  0.3402997794389080
  0.9491786355666321  0.4061450327611666  0.4357212084717617
  0.8342179475821325  0.5186155343300101  0.4913522005352533
  0.7601525249169470  0.5870474893872242  0.5654909288482841
  0.6966532696567000  0.6429532788851944  0.6734814968623084
  0.5968760649686260  0.7342832562753756  0.7435135211332593
  0.5191859703765260  0.8287750018456990  0.8310857516611279
  0.4271266435954217  0.9241547286821685  0.9107456639904044
  0.4260799473975609  0.9479960741971212  0.0558639631782967
  0.3233218120155072  0.9971571128645280  0.1886357142857165
  0.2284687232373557  0.0648382069029196  0.2842351370431899
  0.1585059454595807  0.1570546650055391  0.3555661023440351
  0.0819381487633848  0.2389710741971172  0.4074453511443323
  0.0062965522332945  0.3188720385751225  0.4689379005167922
  0.9395581243078652  0.4157414488741225  0.5732826882613509
  0.8412740711517159  0.5125080024916926  0.6556212315430017
  0.7288852454780326  0.5918318332410450  0.7354729568106322
  0.6468659653008473  0.6364074252491676  0.8386658577888539
  0.5744126854928027  0.7628860086747906  0.9134346502399424
  0.5032877583979314  0.8354789170358075  0.9948009011627903
  0.5066571456256952  0.8288218009413058  0.1542912984496141
  0.4309236226467306  0.9064918669250659  0.2187451730343284
  0.3599238441306767  0.9761940697674447  0.3323918618493877
  0.2594379660391297  0.0539055804725024  0.4252883402547099
  0.1708296327057965  0.1589045265780697  0.4994735382059829
  0.1011605094130701  0.2542697688261342  0.5627266334440719
  0.0307021737726103  0.3060293313953508  0.6801858854743443
  0.9294358757844208  0.4320767206533773  0.7175272282207459
  0.8457019781284600  0.5275321700812086  0.8314340794573667
  0.7267819407530425  0.5710531893687687  0.9231835686600220
  0.6675970348837197  0.6564178677556285  0.9971675830564806
  0.6021440070136563  0.7492569250646000  0.0945319176817989
  0.6140357184385365  0.7733422840531574  0.1990769282945735
  0.5150342409560693  0.8107888312107789  0.3060018106312299
  0.4502624510889603  0.9023959057770412  0.4424121839239561
  0.3843245418050927  0.0098188192137343  0.4814702611664785
  0.2359203013104434  0.0469644056847542  0.5808741851236618
  0.1909104738833491  0.1500870870247297  0.6660075286083398
  0.1168843563122905  0.2395696313215225  0.7564252750092280
  0.0067889867109656  0.3432246580841607  0.8095381792174265
  0.9349297775932044  0.4149266588224449  0.9140713962716873
  0.8653967834071636  0.4926144629014431  0.9927634454595804
  0.7667551421188605  0.5727441592838716  0.0574971267072755
  0.6770030047988200  0.6587771996124019  0.1808046746954588
  0.2552837236987813  0.2459252408637909  0.7631609043927625
  0.1683258600959761  0.3268532502768551  0.8355592275747483
  0.0565743064784030  0.4003151545773349  0.9433651559616081
  0.9809925382982669  0.4918152727021052  0.0063507784237729
  0.9194735585086775  0.5765977819306016  0.1045602117940234
  0.8229394790513069  0.6886262476928735  0.1694822817460349
  0.7401487564599449  0.7512459182355116  0.2564134228497608
  0.6572221737726096  0.8355459740679194  0.3506751324289397
  0.5641951075119991  0.9237562993724637  0.3919213293650827
  0.4980183167220389  0.9903900950535274  0.5212597692875605
  0.4077773408084155  0.0933222448320379  0.6038817386489512
  0.3142205034145462  0.1650162772240691  0.7022871073274288
  0.3272593267811033  0.1709656427648554  0.8577696031746029
  0.2186434509966801  0.2563231261535606  0.9525973491140647
  0.1228249760059086  0.3377508499446265  0.0193849515503857
  0.0602136512550757  0.4144365360834286  0.0807228972868188
  0.0149354429678823  0.5060623611111126  0.2017678774455547
  0.9185300355297130  0.6276017935585116  0.2605997125322972
  0.8318289539497954  0.6554527348652641  0.3597989022702137
  0.7181336946290173  0.7466383199520124  0.4302587195459608
  0.6402445510335895  0.8272077980804724  0.5248740942229588
  0.5638949649317055  0.9148137047803644  0.6044232853451490
  0.4891279757290548  0.0157938016795853  0.6915684486895515
  0.4120593170911775  0.0747413579734229  0.7617435017534149
  0.4141870178110025  0.0991285635843511  0.9338600549095588
  0.3463766805094153  0.1324283448689556  0.9761361494093777
  0.2356221470099698  0.2393236157253611  0.0836716906607577
  0.1595498943337006  0.3136953691399071  0.1761074017165001
  0.0951408942414176  0.3896154078995906  0.2650709468438563
  0.9901123048172735  0.4734569647471361  0.3380176850313745
  0.9208726167404961  0.5973111041897354  0.4206384011627904
  0.8357960908084152  0.6908219859726827  0.4823779208194878
  0.7317871253229953  0.7429631358434818  0.5600849543189383
  0.6594934588408989  0.8130485451273515  0.6725554037467703
  0.6003181201550376  0.9217519712070867  0.7305720284237722
  0.5252751264304152  0.0300263118309374  0.8170849224806176
  0.4893723288113705  0.0389291934293112  0.9912639530269445
  0.4160673906423042  0.0766589124215571  0.1053076564230366
  0.3125772434477696  0.1661554591177534  0.1924845657991909
  0.2191380675525991  0.2719634205426331  0.2715396571613127
  0.1815035188261334  0.3472065540789941  0.3574118272425224
  0.0831452260981891  0.4128575156884438  0.4310833194905896
  0.9762182530454027  0.4801786720191927  0.5191389474898500
  0.9168332188999599  0.5971465586932467  0.5746694255260252
  0.7865987532299741  0.7165213464378013  0.6627231953672919
  0.7366926568844576  0.7910845385751202  0.7791608153377609
  0.6700210626614975  0.8506171100959747  0.8472818383167251
  0.5827973984865267  0.9293878257659642  0.9095644093761521
  0.6039389511812487  0.9627490942229571  0.0533140310077513
  0.4876943636950912  0.0073150101513448  0.1516522702104126
  0.4287017737172363  0.0674863044481384  0.2253933384090061
  0.3235939004245125  0.1393532396640822  0.3175623371170175
  0.2521526342746370  0.2193667861757120  0.4099757779623445
  0.1764057059800663  0.2966090019379877  0.4730764779438914
  0.0836059043927619  0.3733398098929470  0.5818043955334105
  0.0101389331856794  0.4822863229051322  0.6488775032299756
  0.8945046184016263  0.6366240070136584  0.7303550359911384
  0.7789539128829830  0.6595839530269458  0.8448220727205609
  0.7391533794758232  0.7266007968807671  0.9265607373569580
  0.6643605970837925  0.8638582022886681  0.9910869458287195
  0.6915747466777376  0.8742685972683617  0.1265034943706169
  0.6075931409191568  0.9300040028608336  0.2279439004245134
  0.5131313750461430  0.9711940508490216  0.3024906621447059
  0.4421378133074967  0.0703718567737184  0.4137220671834640
  0.3429134020856424  0.1603715333148727  0.5263010668143195
  0.2668011761720166  0.2443313385935753  0.5778393267811026
  0.1580490000922836  0.3109399455518655  0.6839722789774854
  0.0911570238095223  0.4241479166666693  0.7168680398671086
  0.0100385335917323  0.4990945865633094  0.8050719366002212
  0.9224463330564774  0.5838598698781823  0.9021635940383916
  0.8403603875969026  0.6602388505906234  0.0015452339424158
  0.7264399178663723  0.7443780066445171  0.0635155163344407
  0.3422371405500186  0.3184775447582098  0.6824752117940207
  0.2413366703580664  0.4212861517165010  0.7690338145994815
  0.1113090333148747  0.4937479180509428  0.8156727394795098
  0.0902645565706877  0.5782042907899623  0.9305853940568483
  0.9920289913252134  0.6743219942783298  0.0103321862310821
  0.9388407193613872  0.7722320708748640  0.0825100046142495
  0.8074221991509773  0.8384774833887008  0.1785464853266916
  0.7329192926356569  0.9186879088224416  0.2642926444259857
  0.6675724478589871  0.0335595265780739  0.3363274100221503
  0.5928351610372857  0.0951042414174950  0.4421477588593561
  0.4894548228128457  0.1856871973052776  0.5131130200258411
  0.3949783079549647  0.2442203811369481  0.5606280597083781
  0.3901742704872646  0.2612971410114397  0.7812784800664474
  0.3070644407530452  0.3534647485234430  0.8520325470653347
  0.2259823869509034  0.4232383365633083  0.9497937592284984
  0.1370823361941689  0.5031966440568496  0.9918679517349602
  0.0877880486341809  0.5793054102067217  0.0655389119601324
  0.0059312555370994  0.6771797429863398  0.1655077547065318
  0.9107969813584376  0.7703965153193053  0.2395834320782555
  0.8216159657622768  0.8212379074381673  0.3549056030823152
  0.7284801319675154  0.9327728096160968  0.4142857230527852
  0.6523933250276883  0.0077398541897367  0.5072148971022514
  0.5832098528054601  0.0892505015688414  0.5924631201550383
  0.4775902547065343  0.1838451010520501  0.6817398043558498
  0.5090859648394215  0.1834117838685856  0.8130524713916571
  0.4242790240863812  0.2621269098375762  0.9165036291066784
  0.3394982853451438  0.3444154171280900  0.0220962947582137
  0.2506418064784057  0.4195556409191568  0.0816249003322227
  0.1569378751384249  0.5122038072166859  0.1709612790697648
  0.0792620339608732  0.5980580509413045  0.2881538630490965
  0.0111831173864871  0.7159905790882277  0.3607256925987414
  0.9158734888335189  0.7612896839239554  0.4243384962163148
  0.7826343360096004  0.8427805675526017  0.5153460345145788
  0.7253617026578070  0.9243781464562559  0.5758583744001484
  0.6845633337947561  0.0029765591546678  0.6861429697305255
  0.5978076721114789  0.1197562882982623  0.7359511581764480
  0.6048315416205270  0.1166703216131424  0.9051841814322614
  0.5064285668143214  0.1646848449612435  0.0202707664267265
  0.3703918475452213  0.2445846151716466  0.0682026227390153
  0.3138865037836851  0.3348259671465499  0.1680276914913250
  0.2562069430601710  0.4075825978220777  0.2650169195275041
  0.1523738298265016  0.5131618023255839  0.3581882581210749
  0.0637224294019916  0.6051294061461761  0.4195474460132900
  0.9929497895902557  0.6958530832410474  0.5384514700996661
  0.8876753700627518  0.7727760054448112  0.6145832188999663
  0.8002754434293067  0.8424781095422631  0.6781019605943186
  0.7519666482096738  0.9385360718899989  0.7577484053156169
  0.6805079452750107  0.0482306289221128  0.8241391611295654
  0.7045966242155757  0.0206795994832021  0.9804740406976720
  0.6043350645994821  0.0663599820044283  0.0885994370616459
  0.4825887564599469  0.1768026241232903  0.1501016883536366
  0.4014315411590985  0.2560605823181987  0.2561972346806911
  0.3484910049833871  0.3339237412329297  0.3545804388150628
  0.2390863307493518  0.4007012453857541  0.4010013072166885
  0.1726905269472141  0.4958032862679929  0.4916775705980072
  0.0801342178848259  0.5670592252676272  0.5781706607604278
  0.0094618503137696  0.7048873071244017  0.6611882498154316
  0.8847830329457338  0.7351997194536750  0.7639609468438522
  0.8337476250461435  0.8395636549464740  0.8604846216315991
  0.7589334007013662  0.9191417201919521  0.9122084708379461
  0.7654157308970113  0.9252207027500887  0.0394975189184166
  0.6881919665928393  0.0137882996493204  0.1644623694167606
  0.5621721843853820  0.0641998588039883  0.2198888298265018
  0.5127662301587321  0.1504090591546685  0.3256707798080498
  0.4292938422849772  0.2621010128276140  0.4186760871170208
  0.3160793761535601  0.3317086221853103  0.4816142478774452
  0.2638998786452547  0.4054752985418943  0.5699914581026206
  0.1797776725729037  0.5067878972868201  0.6496134602251757
  0.0639282498154330  0.5733505837024708  0.7100233462532302
  0.9986711554078980  0.6504860308231812  0.8300704572720576
  0.8869443909191617  0.7301480693983038  0.9182337001661125
  0.8066655278700594  0.8233273763381348  0.9799263344407549
  0.3893672245293445  0.3930488173680331  0.5717643470837928
  0.3060229378922088  0.4930186830933891  0.6695589894795120
  0.2518995441122200  0.5845540831487597  0.7563757022886648
  0.1278783019564429  0.6463157018272412  0.8184244075304505
  0.0763282110557384  0.7511752251753379  0.9040060622000752
  0.9771781621447033  0.8122641925064613  0.9723450839793273
  0.9288027985418950  0.9385638824289373  0.0805091758951662
  0.8365342031192355  0.9957193272425258  0.1708165646917692
  0.7626974220191940  0.1071731824473972  0.2522908241048327
  0.6716357087486173  0.1767960562015531  0.2918411669435201
  0.6051760866555895  0.2654848029715779  0.4331270501107412
  0.4999569827427095  0.3489634246954623  0.4839698126614991
  0.4810330311000399  0.3566771184016275  0.6610361161867857
  0.3913234196197877  0.4283578165374706  0.7705466445182694
  0.3059271142488029  0.5070273408084134  0.8500479166666679
  0.2278456547619072  0.5794159943706134  0.8888561586378714
  0.1567873975636758  0.6664772356035442  0.9801846751568846
  0.0981589677925427  0.7800063201365788  0.0980939585640428
  0.9898182272056104  0.8384794453672910  0.1625994389073426
  0.9086600909007032  0.9282910580472503  0.2614542141934280
  0.8155207415097792  0.9905449100221517  0.3552365342377257
  0.7433782807308944  0.1070010940383881  0.4450294532115180
  0.6574599344776644  0.1855508840900697  0.5253915522332946
  0.5853896479328142  0.2882026471945380  0.6010876388888917
  0.5601295007382774  0.2590003506829106  0.7318102177925425
  0.5049192944813612  0.3464365434662255  0.8393831487633818
  0.3982202302510132  0.4243410109819123  0.8987045367294186
  0.2988649649317097  0.5244811609450011  0.0218327736249506
  0.2363322642118888  0.5897881016980406  0.1023152404023620
  0.1526253202288643  0.6907060543558501  0.1477414774824624
  0.0910858882428940  0.7796517275747519  0.2654199926172041
  0.9914678419158349  0.8349064899409342  0.3150678940568454
  0.8918182378183843  0.9019502547065343  0.4065663344407540
  0.8597031815245444  0.0118893420081179  0.5066348934108547
  0.7450059546880752  0.0747546673126607  0.5748766283684006
  0.6680333171834647  0.1566264345699508  0.6593415333148727
  0.6484031266149870  0.2094272946659288  0.8180504032853477
  0.5732526665743833  0.2546156012366154  0.9283330255629352
  0.4937396668512335  0.3511805237172396  0.0052422660575857
  0.4146905038759670  0.4503444006090831  0.0773072595976387
  0.3169023924880037  0.5193220478036196  0.1729730334071604
  0.2167067820228894  0.6051499363233646  0.2537876638058307
  0.1373521017903272  0.7004322102251734  0.3559890208564056
  0.0665480444813582  0.7607745288852001  0.4496433928571406
  0.9612089354927988  0.8374414262643057  0.5077724916943538
  0.9111407442783346  0.9173592792543346  0.5846174750830571
  0.8356162596899210  0.0241261180324841  0.6983392261904768
  0.7587483794758185  0.0889023952565537  0.7427521530084888
  0.7627081672203744  0.0964974529346634  0.9116912555371002
  0.6866602413252139  0.1683425715208529  0.0105941514396477
  0.5852257959579177  0.2625354923403478  0.0972337887596879
  0.4609750364525667  0.3359051873385042  0.1490620011997024
  0.4188457281284599  0.4483978197674432  0.2417588981173893
  0.3264389359542292  0.5019601430417140  0.3253158600959765
  0.2355531012366185  0.5943175078442238  0.3995956902916191
  0.1710045990217779  0.6825424806201568  0.4756977228682189
  0.1097032415097843  0.7848838058324077  0.5793733471760802
  0.9925743175526023  0.8358816311369495  0.7078176947212995
  0.9114075461424846  0.9184979332779619  0.7566535608157992
  0.8347537910668166  0.0284718978405323  0.8414757728866746
  0.8722047033038010  0.0185498555740153  0.9762811950904364
  0.7752246368586171  0.0757623957179803  0.0525758204134377
  0.6531576725729025  0.1767281053894436  0.1611957719638255
  0.5645150138427439  0.2656815559246937  0.2298340033222601
  0.5001857470468778  0.3276467441860476  0.3255921179401966
  0.4053464590254734  0.4076625327611652  0.4032355223329631
  0.3463882558139559  0.4938359796050236  0.4939298218899992
  0.2773833324104800  0.5821363021410093  0.5511021179401965
  0.1821625516795891  0.6652928548357337  0.6763181293835387
  0.1086351624215567  0.7502958868586163  0.7632017875599857
  0.0017929157438203  0.8076640360834233  0.8378006566076053
  0.9088597817460311  0.9085981344592113  0.8980596507013630
 
  0.00000000E+00  0.00000000E+00  0.00000000E+00
  0.00000000E+00  0.00000000E+00  0.00000000E+00
  0.00000000E+00  0.00000000E+00  0.00000000E+00
  0.00000000E+00  0.00000000E+00  0.00000000E+00
  0.00000000E+00  0.00000000E+00  0.00000000E+00
  0.00000000E+00  0.00000000E+00  0.00000000E+00
  0.00000000E+00  0.00000000E+00  0.00000000E+00
  0.00000000E+00  0.00000000E+00  0.00000000E+00
  0.00000000E+00  0.00000000E+00  0.00000000E+00
  0.00000000E+00  0.00000000E+00  0.00000000E+00
  0.00000000E+00  0.00000000E+00  0.00000000E+00
  0.00000000E+00  0.00000000E+00  0.00000000E+00
  0.00000000E+00  0.00000000E+00  0.00000000E+00
  0.00000000E+00  0.00000000E+00  0.00000000E+00
  0.00000000E+00  0.00000000E+00  0.00000000E+00
  0.00000000E+00  0.00000000E+00  0.00000000E+00
  0.00000000E+00  0.00000000E+00  0.00000000E+00
  0.00000000E+00  0.00000000E+00  0.00000000E+00
  0.00000000E+00  0.00000000E+00  0.00000000E+00
  0.00000000E+00  0.00000000E+00  0.00000000E+00
  0.00000000E+00  0.00000000E+00  0.00000000E+00
  0.00000000E+00  0.00000000E+00  0.00000000E+00
  0.00000000E+00  0.00000000E+00  0.00000000E+00
  0.00000000E+00  0.00000000E+00  0.00000000E+00
  0.00000000E+00  0.00000000E+00  0.00000000E+00
  0.00000000E+00  0.00000000E+00  0.00000000E+00
  0.00000000E+00  0.00000000E+00  0.00000000E+00
  0.00000000E+00  0.00000000E+00  0.00000000E+00
  0.00000000E+00  0.00000000E+00  0.00000000E+00
  0.00000000E+00  0.00000000E+00  0.00000000E+00
  0.00000000E+00  0.00000000E+00  0.00000000E+00
  0.00000000E+00  0.00000000E+00  0.00000000E+00
  0.00000000E+00  0.00000000E+00  0.00000000E+00
  0.00000000E+00  0.00000000E+00  0.00000000E+00
  0.00000000E+00  0.00000000E+00  0.00000000E+00
  0.00000000E+00  0.00000000E+00  0.00000000E+00
  0.00000000E+00  0.00000000E+00  0.00000000E+00
  0.00000000E+00  0.00000000E+00  0.00000000E+00
  0.00000000E+00  0.00000000E+00  0.00000000E+00
  0.00000000E+00  0.00000000E+00  0.00000000E+00
  0.00000000E+00  0.00000000E+00  0.00000000E+00
  0.00000000E+00  0.00000000E+00  0.00000000E+00
  0.00000000E+00  0.00000000E+00  0.00000000E+00
  0.00000000E+00  0.00000000E+00  0.00000000E+00
  0.00000000E+00  0.00000000E+00  0.00000000E+00
  0.00000000E+00  0.00000000E+00  0.00000000E+00
  0.00000000E+00  0.00000000E+00  0.00000000E+00
  0.00000000E+00  0.00000000E+00  0.00000000E+00
  0.00000000E+00  0.00000000E+00  0.00000000E+00
  0.00000000E+00  0.00000000E+00  0.00000000E+00
  0.00000000E+00  0.00000000E+00  0.00000000E+00
  0.00000000E+00  0.00000000E+00  0.00000000E+00
  0.00000000E+00  0.00000000E+00  0.00000000E+00
  0.00000000E+00  0.00000000E+00  0.00000000E+00
  0.00000000E+00  0.00000000E+00  0.00000000E+00
  0.00000000E+00  0.00000000E+00  0.00000000E+00
  0.00000000E+00  0.00000000E+00  0.00000000E+00
  0.00000000E+00  0.00000000E+00  0.00000000E+00
  0.00000000E+00  0.00000000E+00  0.00000000E+00
  0.00000000E+00  0.00000000E+00  0.00000000E+00
  0.00000000E+00  0.00000000E+00  0.00000000E+00
  0.00000000E+00  0.00000000E+00  0.00000000E+00
  0.00000000E+00  0.00000000E+00  0.00000000E+00
  0.00000000E+00  0.00000000E+00  0.00000000E+00
  0.00000000E+00  0.00000000E+00  0.00000000E+00
  0.00000000E+00  0.00000000E+00  0.00000000E+00
  0.00000000E+00  0.00000000E+00  0.00000000E+00
  0.00000000E+00  0.00000000E+00  0.00000000E+00