Li 
 1.0000000000000000
    21.6720000000000006    0.0000000000000000    0.0000000000000000
     0.0000000000000000   21.6720000000000006    0.0000000000000000
     0.0000000000000000    0.0000000000000000   21.6720000000000006
 Li 
 432
Cartesian
 -0.2866010200000000 -0.3024851400000000 -0.6285439600000000
 20.0625836200000016  2.2698472299999999  1.4263481600000001
 18.1985148199999998  3.6289876200000002  3.1255475700000002
 16.5846629000000014  5.6968648300000000  6.0394219500000004
 14.8418431200000001  7.3691993900000003  7.7597947999999999
 12.4038825700000004  9.0421200400000004  8.8346195999999999
 10.9116781799999991 10.4600681299999998 10.9158664699999992
  8.8756751299999994 12.8530329299999995 12.7321837900000006
  7.5818347599999996 14.1890003799999995 14.1908852700000008
  5.1558806400000003 15.8613423600000001 16.4863555400000017
  3.8004574299999998 17.7773355399999993 17.9447612399999983
  1.7467898200000000 19.7594578900000002 19.9049472499999993
  1.1978326600000000 19.0461332399999996  1.2634260900000001
  0.0978632900000000  0.2033429200000000  3.5446252299999998
 19.6798498700000017  1.7597186100000000  5.5681381300000004
 18.1514508100000000  3.7089221999999999  6.7845224899999996
 16.3919754600000012  5.0439067700000004  9.6346330899999995
 14.8493948699999994  7.4129048400000004 10.9637323700000007
 12.7458983999999997  8.8670168199999999 12.9375321299999992
 10.1940972700000003 10.4326365800000005 13.7655642100000009
  8.6313622999999993 11.9050522799999996 16.1963318600000008
  7.3066132699999997 13.8377047700000002 17.6043186899999995
  5.1454707700000002 15.5598726500000009 19.3751842799999991
  3.6406656499999999 18.1371871300000009 -0.7741912300000000
  3.7265326800000000 18.9705739400000013  3.6247068400000000
  2.0080757500000002 19.7424817200000007  5.0386784699999998
 -0.2737342800000000  0.1812677000000000  7.1562393999999996
 19.7072079500000008  2.1115314000000001  8.8762690600000003
 17.4934931400000018  4.0604375800000003 11.1903477999999996
 15.4959984700000000  5.3835932499999997 12.8958124099999996
 14.6259675199999997  7.0963546800000001 14.8990324800000007
 12.3102778300000004  9.6906443400000004 16.1970009099999999
 10.5025597299999998 10.7743797800000003 17.9031163299999996
  9.3321960399999995 12.3419652699999993 19.3493647300000013
  7.4415071099999999 13.8968045599999996 21.6370729799999992
  4.7546643800000004 16.7701371399999992  1.8706852000000000
  5.1264585900000004 16.3502731300000015  5.2422426900000003
  3.8487151599999998 17.8760342500000000  7.7828262500000003
  1.0315006300000000 19.6311846099999983  8.6619156999999998
 -0.5005892199999999 -0.0163516500000000 10.5207727700000007
 20.0441589299999983  1.3486464800000000 12.7556647999999999
 18.0756418399999994  3.7807690500000000 13.8817656199999995
 16.5331910999999998  5.8041776399999998 15.7017291399999994
 14.2891710100000005  7.1196822700000002 17.6495907400000007
 12.6344808400000002  9.2867953100000005 20.0051844000000010
 10.6231955599999992 10.9477155199999991  0.3609008900000000
  8.9263739100000006 12.7113668900000008  2.2165437699999999
  6.9547492200000001 14.4785541200000001  3.6265278099999998
  6.9467348299999996 14.5269084599999996  6.9138563900000003
  5.7260988499999996 16.1260134400000013  9.1717658499999999
  3.9778470200000000 18.1083084499999991 11.4368148800000000
  0.9575492300000000 20.0635418600000008 12.6225974500000007
 -0.2901306700000000 -0.1458298800000000 15.4654885199999992
 20.5256618199999998  2.1628834100000001 16.2066738599999987
 17.9009668700000013  3.5992561099999998 17.7789702100000007
 15.8405220900000003  5.6083763800000002 19.5551153999999983
 15.1250037499999994  6.7633450200000000  0.2765584800000000
 13.2474205699999992  8.7123048399999998  1.4287926300000000
 11.0400607100000006 11.0286671199999997  4.1818319600000002
  9.1608873800000001 12.9143690299999996  5.2418363699999997
  9.5423532899999994 13.4159376300000002  8.5704322899999994
  6.9813825600000001 14.2941967000000005 10.3205758000000003
  5.7100034400000004 15.8537747800000002 13.2216915200000003
  4.0206737099999996 18.7331132099999991 14.6555571199999992
  1.8177602300000000 19.6795730000000013 16.6832852500000008
 -0.2501757300000000 -0.5903436000000000 17.8024318900000011
 20.2217525000000009  2.6056055900000001 19.6581238899999988
 17.8617471999999999  4.1636292900000003 21.5469343699999989
 16.5942860699999990  6.1520144500000002  2.4703031700000002
 14.8643052800000000  7.1342226200000001  3.5986861499999998
 13.1623531699999994  8.3765332899999994  4.8267841499999999
 10.8622002999999996 10.2697309899999993  7.3991958000000002
  1.6277618800000000  1.6795899700000001 19.3780241000000011
  0.5728001500000000  4.0099929300000001 -0.1728037200000000
 20.4185960900000012  5.0386749999999996  2.1189992400000000
 18.5315034300000008  6.8628220000000004  3.6800135400000000
 17.2645195099999995  8.6808478600000001  5.1840593999999998
 14.6325944799999998 10.3357089200000001  7.1046391099999999
 12.8484601600000001 13.1402383999999994  9.0495135599999994
 11.1012000299999993 14.6504270800000000 11.1067598000000007
  9.0654988200000002 15.9394097099999996 12.9824405800000005
  7.1669606799999999 17.3834757000000018 14.5585964699999995
  6.0370657100000003 19.5723991599999998 16.0908231300000004
  3.8563545600000002 -0.8670712600000000 18.0313123299999987
  3.9990696500000000 -0.2719788000000000  0.1318187000000000
  1.5156275500000000  1.5383892800000001  1.5236394099999999
  0.2792894800000000  3.2400617299999999  4.1720522000000004
 19.7551511700000013  5.0369024800000002  5.6840402399999999
 18.4682703900000007  6.9173022499999997  7.4964402000000003
 16.1267309700000006  9.2291245600000007  9.1152319599999991
 14.6547590900000007 10.4681476100000008 10.3381990699999999
 12.8436127399999993 12.2887732100000004 12.4446942299999996
 10.7201904500000005 14.0785973599999998 14.4579424200000002
  9.0929239600000002 15.7682627300000000 16.7193352600000011
  7.5540191800000001 17.8382438199999989 18.4891403899999993
  5.4893494799999996 19.4005671000000000 19.7891235799999983
  6.1242221700000004 19.6199869299999996  1.4665518099999999
  3.7398353200000001 -0.4592307800000000  3.2045866699999999
  1.9994576600000000  1.4696515600000000  5.5457028499999996
  0.4284538400000000  3.5248252799999999  7.0029479700000001
 19.6810437500000006  5.0291649899999999  8.8393784800000006
 18.5992333899999984  6.7840068200000001 10.6465141299999999
 17.0050334999999997  8.8625463199999999 12.4732962799999996
 15.2467886000000004 10.6515326399999992 13.7947753599999992
 12.6627005300000004 12.3186761499999999 15.5537500800000004
 11.0824418599999994 13.8442002399999993 18.2861293099999997
  9.0167549099999995 15.7074542400000006 19.9908035800000015
  7.3788278700000003 18.0066215999999990 21.2170972000000013
  7.0875427100000001 18.1974166699999991  3.3587348299999999
  5.1520459299999999 19.2940418399999984  5.3220960000000002
  2.8814144100000001 -0.4839082800000000  7.6716067600000004
  1.5235514600000000  1.3412801900000000  9.1136681599999996
 -0.6042084200000000  3.9390619999999998 10.9959040300000002
 20.3380209799999996  6.1346154400000001 12.7870036799999998
 17.9595805199999994  7.6323750199999996 14.5437496199999998
 16.0394918400000002  9.1064443300000004 16.1417670000000015
 14.4613351100000003 10.6998545699999994 17.9657766300000006
 12.6610181399999995 11.9059600799999998 19.5031813400000011
 11.3329634099999996 14.6018638000000003 21.8982242900000017
  8.8337406900000008 16.1747169200000016  2.3093915699999998
  8.9767816000000007 16.2887201200000007  4.8404035299999997
  7.8644088400000003 17.4018578099999992  7.1203115900000000
  5.8668105700000002 19.5767072599999992  9.0002464500000006
  3.1232300899999998 -0.7745970500000000 11.2394779899999993
  1.5194594800000001  1.2922527699999999 12.5803451899999992
  0.1937140400000000  3.7303201900000000 13.7134304300000007
 19.4857186899999988  5.8407444300000000 16.0928663400000005
 17.9835631700000000  7.6277570600000004 18.0235861200000009
 16.1208252399999985  9.0277981000000000 20.1078618700000007
 14.5601731900000004 10.7882005200000002 22.1927644899999983
 13.2201681999999998 12.2844585300000002  1.7908251100000001
 11.2661154700000008 13.5181649400000001  3.2925390299999999
 11.2931920399999992 14.7329854200000003  6.9572406300000003
  9.1920514000000004 16.2470608299999988  8.5830598100000000
  7.6448131300000002 17.6501761200000011 10.8922989099999992
  5.5424379400000001 19.6756671200000000 12.1813609100000004
  3.7848140600000000 -0.3057147800000000 14.7860099100000006
  2.3474890300000002  1.3414485599999999 15.9292804199999996
  0.5325609300000000  3.3855882700000000 16.9432743200000004
 20.2633260499999999  5.2697382399999997 19.4830805200000015
 18.4789140600000010  7.1029750800000002 21.5163160100000006
 16.4479140299999997  9.0155411099999991  1.4659324700000000
 14.6479358800000004 11.1912192299999997  3.6904335399999999
 12.8043481099999994 12.4010442800000007  5.8581241000000004
  3.8072113600000002  3.5138196000000002 18.0559536499999993
  1.9564853300000000  4.7231382499999999 19.3188173499999998
 -0.0177688300000000  6.7602021800000003 -0.1129922000000000
 19.9320056500000007  8.9360730999999998  2.0879745999999999
 18.2998411099999991 10.8699744999999997  4.1970128700000000
 16.5978950999999988 12.8346442700000001  5.3510017899999998
 14.6207979399999992 14.6322193200000008  7.5042789299999999
 12.3360022199999992 15.9692337999999996  9.3188474899999996
 11.3811101600000004 17.4883907799999996 11.0636719299999999
  8.7926071900000000 19.4980665100000010 12.6979380200000005
  7.4898922099999998 21.6551323899999986 14.7942155199999998
  5.9439436199999998  1.7520305300000001 16.6533753100000013
  5.4212666799999996  1.5824389100000000 19.6507864999999988
  3.4425568900000001  3.2661461200000002 -0.0688332800000000
  2.1425513000000000  5.3919347799999997  2.3575784899999999
  0.3153572800000000  6.6798644500000002  3.6887365800000000
 20.4039400300000011  8.5656593200000000  5.8687411999999997
 17.9944599600000004 11.1286423899999996  7.7182406700000001
 16.1782980400000014 12.8871008000000007  9.2516039600000006
 14.1433747899999993 13.7542279300000008 10.7938987300000004
 12.6406108300000000 15.2475457199999997 13.2641268799999992
 10.4083166499999997 17.4641846899999997 14.8121216899999997
  9.5002274000000000 19.8126412899999984 17.1126583399999994
  7.4199861599999997 22.1370967500000013 17.9478715700000002
  6.7845673800000004  0.2082066000000000 -0.2374894700000000
  5.8513955199999996  1.9646461000000000  1.5681556000000001
  4.1002006900000003  3.4308673600000001  3.5300037799999999
  2.1793965599999998  5.2284258599999998  5.9106911300000000
  0.1055433000000000  6.9081580000000002  7.3749768199999997
 20.5705993900000017  8.8019751500000005  9.4429500300000004
 18.0791713600000001 11.2394358600000004 10.6485848900000004
 16.4740255200000014 12.7224931899999998 12.2553194100000002
 15.0978696600000006 13.9340834600000001 14.5956910000000004
 12.9354980800000003 15.9133867299999991 16.1134250299999984
 11.2517983499999996 17.9612118400000007 18.0112904100000009
  9.2566886200000003 20.0282812800000016 19.7376800299999999
  9.2340046200000003 20.5449709200000008  1.2106838099999999
  7.0070303100000002 -0.0616110500000000  4.0881131999999996
  4.9513741700000002  1.4051736200000000  6.1599438900000001
  3.4351408499999998  3.4036887000000000  7.7058285700000004
  1.7757635599999999  5.1789811200000004  8.8301556500000000
  0.1364588800000000  6.9105948200000000 10.1628221799999992
 20.3621036699999998  9.0099486800000008 12.4241824199999993
 18.2320916699999991 11.1070734299999998 14.2086233300000000
 15.7964010399999992 12.8261794899999995 15.9391699199999994
 14.0188792000000007 13.7922217200000006 18.1755664699999997
 12.4486717200000001 16.5332655799999984 19.7959557400000001
 10.9072522999999997 18.1064990899999998 21.5593251300000013
 10.9802736599999999 17.9622260699999998  3.3438010199999999
  9.3389767500000005 19.6454917400000006  4.7406453900000001
  7.8002695500000003 -0.5159221200000000  7.2035964300000002
  5.6225395999999996  1.1682417400000000  9.2168489099999995
  3.7022197999999999  3.4437788999999999 10.8245905199999992
  2.1923505599999999  5.5105344299999999 12.1954115999999999
  0.6653775100000000  6.6322676700000001 14.7409885099999993
 20.1427343000000008  9.3639666899999998 15.5502500900000005
 18.3280532700000016 11.4326771899999997 18.0188393699999985
 15.7508182199999993 12.3758647199999992 20.0072343000000004
 14.4681629399999991 14.2258880300000001 21.6106158599999993
 13.0496649199999997 16.2378960799999987  2.0486957200000000
 13.3073820900000008 16.7598739799999983  4.3143951899999999
 11.1618220699999995 17.5714155500000011  6.6316712400000002
  9.7580878400000000 19.5567240700000013  9.5879568499999994
  8.3290814700000002  0.2127934500000000 10.4344234999999994
  5.1128647699999998  1.0178126000000001 12.5887053400000006
  4.1374117899999998  3.2526873500000000 14.4337151600000002
  2.5331177700000000  5.1919530500000004 16.3932485600000000
  0.1471309200000000  7.4383647899999996 17.5443114199999997
 20.2617981399999998  8.9922905499999999 19.8097552999999991
 18.7548790899999993 10.6759406400000003 21.5151693900000005
 16.6171174400000012 12.4125114199999995  1.2460777300000001
 14.6720091200000002 14.2770194700000008  3.9183989100000001
  5.5325088600000001  5.3296918199999999 16.5392231199999991
  3.6479580399999998  7.0835636400000004 18.1082395799999993
  1.2260783700000000  8.6756300300000007 20.4446096600000011
 -0.4119297100000000 10.6586205900000000  0.1376340700000000
 19.9268309600000002 12.4960271299999999  2.2660289100000002
 17.8347443900000009 14.9239080400000006  3.6730200100000001
 16.0405038500000003 16.2810015399999983  5.5569917000000002
 14.2433189500000008 18.1079523500000015  7.5998314699999998
 12.2272363700000000 20.0196465199999984  8.4937190499999993
 10.7930529600000007 -0.2082658600000000 11.2967417200000000
  8.8373505300000001  2.0224796899999999 13.0873250399999996
  6.8097867499999998  3.5762327599999999 15.2199661899999992
  7.0923641300000000  3.7051674100000001 18.5895828399999985
  4.7384408699999998  5.5550347899999997 20.6446897500000013
  2.6618628800000002  7.3197364199999999  0.4201106700000000
  1.3049502500000001  8.9816686099999998  1.7494266300000001
  0.3236809200000000 10.9673834899999996  4.3727134400000001
 19.9063829299999995 13.6013860700000002  5.6477169700000003
 18.0273970900000009 14.2049716700000008  7.7975618100000004
 15.5633934299999996 16.1811456699999994  9.3245669699999993
 13.8753799099999995 17.9272473999999988 11.3750713700000006
 12.2207316800000001 19.8258426099999987 13.0990614399999998
 10.6003814900000002 22.0142832700000000 14.9876714199999999
  8.9301495200000005  1.6197947100000001 16.5085051699999994
  8.9762610499999997  2.1483142300000000 20.2386151100000014
  7.5066754199999997  2.8699870900000000 -0.5171773700000000
  5.1064031700000001  5.1866213999999999  1.8133328799999999
  3.4577653100000001  6.7984060399999997  3.8165996099999999
  2.0618934599999998  8.4437451200000009  5.7446175600000000
 -0.2142861300000000 10.2607593399999999  7.3255192700000000
 19.9571513500000002 12.9449262500000000  9.1160754300000004
 18.1133728800000000 14.9714940799999994 10.4540942999999995
 15.8592905799999997 16.1014970800000015 12.1381611300000003
 14.2925422399999995 17.6203880700000006 14.5756207100000008
 13.0100943000000004 19.9762087199999989 15.8329570000000004
 11.3837625399999993  0.6507302300000000 17.7078644400000016
 10.6056771100000002  0.8436734800000000 -0.1893276100000000
  9.0170124900000008  1.6613519500000000  2.2822275300000001
  6.7741740200000002  3.6009211099999998  4.1715255100000004
  4.7491602000000004  5.8939912500000000  5.8848074500000003
  3.9335442600000001  7.5246604399999999  7.7458291199999998
  1.8019233400000001  8.9474480799999991  9.3424376999999996
 -0.5153980200000000 10.4064321799999995 11.2507792700000007
 19.8696095200000009 12.9413602200000000 12.4542357900000003
 17.0471681799999999 15.5284506199999992 14.3625370900000000
 15.9656032600000000 17.1443841200000016 16.8859731900000014
 14.5206964700000007 18.4345740099999986 18.3622920000000001
 12.6303852200000009 20.1416929600000003 19.7120798800000010
 13.0885649500000003 20.8646983699999993  1.1554216799999999
 10.5693122499999994  0.1585309000000000  3.2866080000000002
  9.2908248400000009  1.4625631900000000  4.8847244300000003
  7.0129270100000003  3.0200634100000001  6.8822109700000000
  5.4646518899999998  4.7541169900000000  8.8849950599999996
  3.8230644599999999  6.4281102900000002 10.2525134300000005
  1.8119071600000001  8.0910203599999999 12.6088648600000006
  0.2197309600000000 10.4521091899999998 14.0624732500000000
 19.3857040900000008 13.7969154799999991 15.8282543400000009
 16.8814892000000007 14.2945034300000007 18.3089839599999991
 16.0189320399999993 15.7468924700000006 20.0804243000000007
 14.3980228599999993 18.7215349599999996 -0.1931637100000000
 14.9878079100000008 18.9471490399999993  2.7415837299999999
 13.1677585500000003 20.1550467500000003  4.9400002100000000
 11.1205831600000007 -0.6242825300000000  6.5555776300000002
  9.5820106900000006  1.5250988800000000  8.9661846399999998
  7.4316192499999998  3.4755718700000000 11.4059967199999992
  5.7821150899999996  5.2951487699999999 12.5229338899999991
  3.4252379300000002  6.7386904999999997 14.8230472300000002
  1.9755550200000001  9.1921336500000006 15.5359641600000007
  0.2175551000000000 10.8163778799999992 17.4475190100000006
 19.9912569299999987 12.6534110999999996 19.5516894100000016
 18.2122903200000010 14.3086963699999998  0.0334883100000000
 15.7434059000000008 16.1321601600000015  1.3765082700000000
  7.4169633099999999  6.9020453499999999 14.7906027899999994
  5.2302483200000003  9.1301134800000003 16.6665008300000004
  2.4122893699999999 10.7005048800000004 17.6772596100000001
  1.9562134700000000 12.5308433899999994 20.1676466599999991
 -0.1727477000000000 14.6139062600000003  0.2239191400000000
 20.3465560699999983 16.7358134400000012  1.7881568200000000
 17.4984539000000012 18.1714840200000012  3.8694594300000000
 15.8838269099999998 19.9098043599999990  5.7277501900000001
 14.4676300900000001  0.7273020600000000  7.2888876299999996
 12.8479236100000005  2.0610991200000002  9.5822262299999998
 10.6074649200000000  4.0242129400000000 11.1201853699999997
  8.5599698899999996  5.2927441000000002 12.1499313099999995
  8.4558567900000003  5.6628316400000003 16.9318672200000009
  6.6547005600000002  7.6602880300000002 18.4652493600000014
  4.8974902900000004  9.1724212299999994 20.5839303499999993
  2.9708483900000000 10.9052776700000003 -0.1762377500000000
  1.9025425899999999 12.5547068500000005  1.4203593000000001
  0.1285421700000000 14.6758393900000002  3.5868840600000000
 19.7387921800000008 16.6960332800000018  5.1922521399999999
 17.8060612099999993 17.7978679299999989  7.6915142300000001
 15.7876214200000007 20.2150523299999989  8.9784001900000003
 14.1386681400000001  0.1677381200000000 10.9923612500000001
 12.6393239299999998  1.9342368700000001 12.8398607400000007
 10.3503360000000004  3.9842910300000001 14.7746650400000004
 11.0329110299999993  3.9749001800000001 17.6204731599999995
  9.1949750100000003  5.6808143900000001 19.8624666499999982
  7.3576068399999999  7.4641709199999999  0.4788709000000000
  5.4319092299999996  9.0926098500000005  1.7689748400000000
  3.4011576300000002 11.1004809099999999  3.7050728400000001
  1.7177667999999999 12.9611140799999998  6.2448705200000001
  0.2423605200000000 15.5169478299999994  7.8176472099999996
 19.8488102499999997 16.4986700299999995  9.1962638900000009
 16.9612513299999996 18.2647404599999987 11.1685792599999996
 15.7200388199999992 20.0331231900000013 12.4800026899999992
 14.8358565700000007  0.0645079900000000 14.8700904400000002
 12.9556878700000002  2.5953582800000001 15.9495334999999994
 13.1079091699999992  2.5284792100000000 19.6171515800000016
 10.9753199000000006  3.5690499600000001  0.4393080500000000
  8.0271321199999992  5.3006377799999997  1.4780872400000000
  6.8025483099999997  7.2563483599999996  3.6414961300000002
  5.5525168699999998  8.8331300600000002  5.7434466799999999
  3.3022456400000002 11.1212425800000005  7.7626559300000002
  1.3809924899999999 13.1143644899999998  9.0924322499999999
 -0.1527921600000000 15.0805280199999991 11.6693202599999992
 19.2377006199999983 16.7476015899999986 13.3192475199999993
 17.3435694100000006 18.2581855900000001 14.6958256899999995
 16.2966212000000006 20.3399537499999994 16.4219234400000005
 14.7479681899999999  1.0452541900000001 17.8607438999999992
 15.2700180400000001  0.4481682800000000 -0.4231665900000000
 13.0971495200000003  1.4381535299999999  1.9201269999999999
 10.4586635300000008  3.8316664700000000  3.2530037900000002
  8.6998243599999991  5.5493449400000001  5.5523064700000004
  7.5524970600000003  7.2367953199999997  7.6844672699999998
  5.1814789599999997  8.6839973900000000  8.6905003300000008
  3.7425491000000002 10.7450488199999992 10.6556363100000002
  1.7366687700000001 12.2893075300000003 12.5301145599999995
  0.2050572200000000 15.2763177199999998 14.3292717500000002
 19.1750178899999995 15.9332483200000006 16.5565616400000017
 18.0689785299999990 18.1950235300000003 18.6484227199999992
 16.4476046599999997 19.9196393600000015 19.7693819799999986
 16.5880897199999993 20.0513830700000000  0.8559902300000000
 14.9144962999999997  0.2988200300000000  3.5642284700000002
 12.1833955799999991  1.3913393400000000  4.7654307200000003
 11.1126697399999994  3.2596651300000001  7.0579371399999999
  9.3036561500000001  5.6802531500000004  9.0735481599999996
  6.8500722400000003  7.1887892600000001 10.4375439799999992
  5.7192381699999997  8.7874606699999998 12.3528548800000006
  3.8961417200000001 10.9831073099999994 14.0784229100000005
  1.3854530300000001 12.4256538499999998 15.3876259599999994
 -0.0287987200000000 14.0973332599999992 17.9892869500000003
 19.2218588399999994 15.8237689600000007 19.8999607500000018
 17.4820553200000006 17.8431509000000013 -0.4350364800000000
  8.4383664899999999  8.5181539700000002 12.3912769300000001
  6.6321291100000002 10.6847008999999993 14.5106824200000002
  5.4591669200000004 12.6684560899999994 16.3921742200000011
  2.7713785600000000 14.0069538900000001 17.7368937600000010
  1.6541849900000001 16.2794694799999995 19.5916193800000009
 -0.4945948700000000 17.6033895800000018 -0.5993373400000001
 20.1290142500000009 20.3405564599999984  1.7447948600000001
 18.1293692499999999 21.5792292600000017  3.7019365899999999
 16.5291785299999994  2.3226572100000000  5.4676467400000002
 14.5556890800000005  3.8315241300000000  6.3247817700000004
 13.1153761499999995  5.7535866499999999  9.3867294300000008
 10.8350677300000005  7.5627353399999997 10.4885937800000004
 10.4249478500000006  7.7299065100000002 14.3259747100000006
  8.4807611499999993  9.2833705999999996 16.6992868799999989
  6.6300524200000002 10.9882965299999995 18.4222384499999983
  4.9378710300000002 12.5571034299999997 19.2632906699999999
  3.3978964800000000 14.4438946500000007 -0.4294377200000000
  2.1273011500000001 16.9042969700000008  2.1258922700000000
 -0.2206593800000000 18.1715265399999986  3.5238550399999999
 19.6924814899999987 20.1179238100000006  5.6662357300000004
 17.6739655099999986 21.4670892900000005  7.6986861700000002
 16.1104941000000004  2.3189277100000001  9.6446783099999998
 14.2484716999999996  4.0212587600000003 11.3862857200000001
 12.6865644500000005  6.2459277699999998 13.0267713100000009
 12.1391265399999995  5.6130556000000000 15.8597910399999993
 10.9426109500000006  7.5079727700000003 18.1911115999999993
  8.6302288300000001  9.1963183900000001 19.4767247200000000
  6.4770015200000000 11.3665557199999991  0.4731598700000000
  5.1217928300000004 12.7818877400000002  2.2173758900000000
  3.3076959399999999 14.9689816100000002  3.2018532999999998
  1.9740133700000000 16.8966122399999996  5.7521820799999999
 -0.1849089300000000 18.0940934499999990  6.8281514000000003
 19.3274848500000012 19.5470659200000014  8.8111055999999994
 18.6314873500000004  0.2576658200000000 10.9797914100000007
 16.1457690499999984  1.6200831499999999 12.4587262899999995
 14.4776180500000002  3.3944080900000002 14.2892497100000000
 14.0521925599999999  4.5387083300000004 17.7287883400000013
 12.4235317900000002  5.5180293100000002 20.1188333300000011
 10.7003260600000001  7.6107843099999997  0.1136103900000000
  8.9871725999999992  9.7598638500000003  1.6754029300000000
  6.8679086500000004 11.2547474199999993  3.7486715799999999
  4.6964693799999999 13.1148094200000003  5.5000862499999998
  2.9766947500000001 15.1797668600000009  7.7149940600000004
  1.4422292200000000 16.4875055900000014  9.7446716099999993
 -0.8406799500000000 18.1490305899999989 11.0044454399999996
 19.7462422099999984 19.8810102999999998 12.6698299199999997
 18.1094755800000016 22.1948612300000008 15.1344077099999996
 16.4435948799999991  1.9266927100000000 16.0969246599999991
 16.5294114000000008  2.0912928000000002 19.7581728900000009
 14.8813007499999994  3.6483202100000001  0.2295964500000000
 12.6830134500000007  5.6896691900000000  2.1072506700000000
  9.9902509899999998  7.2797372200000003  3.2304716899999999
  9.0772246200000009  9.7176775499999994  5.2393988399999998
  7.0745846200000004 10.8784802200000001  7.0502453200000001
  5.1049068100000001 12.8800490300000003  8.6600377999999996
  3.7060116700000001 14.7920606400000008 10.3093210499999994
  2.3774886500000001 17.0100018400000010 12.5561791800000009
 -0.1609293900000000 18.1152267100000017 15.3398250800000007
 19.7520243399999984 19.9056872100000000 16.3981959699999997
 18.0907841599999983 22.2890429700000006 18.2364629499999999
 18.9024203300000018  0.4020124700000000 -0.5140339400000000
 16.8006683300000006  1.6419226400000000  1.1394231800000001
 14.1552330800000004  3.8300515000000002  3.4934347699999999
 12.2341693800000009  5.7578506799999998  4.9809625200000003
 10.8400255100000003  7.1007602399999996  7.0562323800000000
  8.7846684600000007  8.8348624099999995  8.7389202400000006
  7.5069262800000001 10.7024133500000005 10.7044470999999994
  6.0114515800000001 12.6160579399999992 11.9434851000000002
  3.9478268200000000 14.4182267500000005 14.6571665000000007
  2.3543412400000001 16.2604124600000013 16.5401091399999984
  0.0388560700000000 17.5036949899999996 18.1568158299999993
 19.6968091899999997 19.6911387699999985 19.4627487499999994
