Li 
 1.0000000000000000
   -10.8535000000000021   18.7988134399488125    0.0000000000000014
   -18.6059999999999981  -10.7421791085421763    0.0000000000000014
     0.0000000000000001    0.0000000000000001   22.7650000000000006
 Li 
 504
Cartesian
 -0.4111657200000000  0.3258788800000000 -0.1574533700000000
 -10.4406605599999995 17.2735373299999999 15.5108585300000001
 -10.8753716600000008 14.8315200899999997  7.6148543300000000
 -10.7908849300000007 13.5641192799999999  0.0515739600000000
 -10.7041591700000005 11.5896676799999998 14.9922400299999996
 -11.3330346700000000  9.8656422999999993  7.6116265500000004
 -10.7908657300000002  8.1515157299999998  0.2823107100000000
 -10.8418007500000009  6.3320247099999998 15.1104175000000005
 -10.9813093500000001  4.3998138600000001  7.8333667100000000
 -10.5975328599999994  2.5239572400000001  0.0641719500000000
 -10.8651771700000008  1.2034683799999999 15.3514439700000000
 -11.0350907599999992 -0.8083652400000000  7.4509229100000001
 -1.5287578500000001  0.8280865300000000 15.3150942299999997
 -1.6859167100000001 -1.0900766099999999  7.3498358000000001
 -12.4327009099999994 16.0955598900000005  0.0730742900000000
 -12.3239385099999996 14.3051548700000009 15.3597878300000001
 -12.5312338099999998 12.5011763600000005  7.6705787299999999
 -12.1629038499999993 10.9594601699999998  0.0613731300000000
 -12.3136678899999996  8.8973601099999993 15.1438417500000000
 -12.5849481599999997  7.2255285100000002  7.5421322799999997
 -12.3209551499999996  5.3352782000000003  0.0355957600000000
 -12.3107277499999999  3.4927190100000001 15.2608012100000003
 -12.5545090800000008  1.9280057300000000  7.5885382400000001
 -12.2638897199999999 -0.0768625500000000  0.1406521000000000
 -3.2663566899999998  2.0468760200000000  7.3949613500000000
 -3.0516216500000000  0.4680299900000000  0.2846084600000000
 -2.9376675799999998 -2.0096232500000002 15.2195941200000000
 -13.9453359500000005 15.1473984099999992  7.9067493999999998
 -14.1031018400000008 13.5353992299999994  0.1188611700000000
 -13.9555407099999993 11.4888257599999992 15.2149589600000006
 -14.2365449399999999  9.9099636499999999  7.7733137599999997
 -13.9159255900000005  8.1870260699999999 -0.0938866000000000
 -13.7779587899999996  6.3086612799999999 15.1701123300000003
 -13.9745018699999992  4.4844130199999999  7.6186233600000000
 -13.6392104500000002  2.8104787899999999 -0.2847507900000000
 -13.7843653499999999  0.9670171200000000 15.3433677399999997
 -4.7226483400000001  3.0850577000000001  0.1610448200000000
 -4.5405934700000001  0.4586244300000000 15.2443263499999997
 -4.2339085599999997 -0.4013678000000000  7.6050737799999997
 -4.6685834399999999 -2.5527753199999998 -0.0786780500000000
 -15.4492190500000000 14.1879205600000002 15.2103574100000003
 -15.7839394899999999 12.8516658600000007  7.5172147100000002
 -15.4515119999999992 10.7047535000000007 -0.0441036700000000
 -15.5651892200000006  8.7375128400000008 15.1344999799999993
 -15.4891391200000008  7.0810067800000001  7.7346769599999998
 -15.5244667799999991  5.3712689200000003 -0.2305854700000000
 -15.5943008899999995  3.6343299299999998 15.0424730600000007
 -15.5775641799999995  1.6582291400000000  7.7294567000000001
 -6.0979589599999997  3.5529800499999999 15.2122882900000000
 -6.6229405699999999  1.9078022299999999  7.7501832500000001
 -6.2303952200000001  0.0892440900000000  0.0981481600000000
 -6.0340816700000000 -2.1344138500000001 15.2873767399999991
 -17.1577465499999988 15.6249753200000008  7.5629770399999998
 -17.1452725199999989 13.5898329400000009 -0.3029812100000000
 -17.0561069799999991 11.5665379399999999 15.0816958999999997
 -16.7326972699999992  9.8570420399999996  7.7729728800000002
 -17.0809230300000010  8.0263361999999994 -0.3685832100000000
 -17.0981984400000009  5.9145514199999996 15.1126802399999995
 -17.0234972999999989  4.2172656300000000  7.6645217800000003
 -16.9226031399999997  2.5254895300000002 -0.5922814400000000
 -7.9219992899999996  4.7289902799999997  7.5937013200000001
 -7.6512792799999998  2.6570932699999998 -0.1162341000000000
 -7.5652641100000002  0.7159307000000000 15.0223090999999993
 -7.7339479899999999 -1.0501256100000000  7.4627966199999998
 -7.8034918099999997 -2.4503334300000001  0.1950210800000000
 -18.6611676899999992 14.1028105799999999 15.3472782799999994
 -18.8530596999999993 12.7311480199999991  7.3772400700000000
 -18.4176911399999987 11.0301025700000004 -0.1169070300000000
 -18.7896902499999996  8.9551958999999997 15.0290056300000003
 -18.4417297600000012  7.4334922600000004  7.7826721000000001
 -18.7485150800000007  5.1332999399999997  0.0070406500000000
 -18.7312642499999988  3.1521357499999998 15.0940402700000007
 -9.3350958700000000  5.5496041600000003 -0.1004354700000000
 -9.3930240299999994  3.6883491600000000 15.1564215200000003
 -9.5119855799999993  1.7733891399999999  7.4703152800000003
 -9.1687362100000005  0.0208016500000000  0.1290525200000000
 -9.6304359200000000 -1.8476978799999999 15.0025751599999992
 -9.5114178999999996 -3.5864051500000000  7.2450688400000001
 -20.0946322899999998 13.6179698899999995  0.2279763300000000
 -20.3678259399999995 11.4488525600000006 15.2175972000000002
 -20.2555832699999989  9.8749342700000007  7.3824722500000002
 -19.7493884599999987  7.9899799800000002  0.1492678400000000
 -19.9436681000000000  6.1424006999999996 14.9607134100000003
 -19.9573243699999985  4.2765702200000000  7.7430513000000003
 -11.3387542600000000 -2.8765020899999998  0.1433481400000000
 -10.7925066500000000 -4.2189920299999999 14.9991765299999997
 -22.0284697300000012 12.3671498700000004  7.4014503100000004
 -21.3866864399999983 10.4913928799999994  0.0123565400000000
 -21.8398256900000014  8.7050526500000007 15.2071179599999997
 -21.5914031699999995  7.0295918999999998  7.4254938700000004
 -21.6686188100000017  5.3561432399999998 -0.1505598200000000
 -12.4548851200000001 -1.6304458100000001 15.1007600499999999
 -12.6325133199999993 -3.8641936800000001  7.3931903700000001
 -12.4836931000000000 -5.8444936900000002 -0.0150368000000000
 -23.0681719399999992 11.5728435100000002 15.3123581200000007
 -23.4103423799999995  9.5048980099999998  7.4518474299999999
 -23.0871758100000015  7.9714228800000004 -0.0160981300000000
 -23.1723176799999990  5.9495582300000001 15.2697132000000000
 -14.0293868800000006 -1.1441801899999999  7.4503907099999997
 -14.0048874399999992 -2.6389001599999999 -0.0042313900000000
 -13.4243409099999997 -4.5024441800000004 15.4256596399999992
 -13.7176148500000004 -6.4197307800000001  7.4393505900000001
 -24.8849453599999997 10.5673384499999994  0.0808982900000000
 -24.6551595200000015  8.7158928499999995 15.3497454199999996
 -25.0445804800000005  6.9504470700000001  7.4439816299999997
 -15.4616115000000001  0.2196631400000000  0.0459785800000000
 -14.8906132400000004 -1.6796306900000000 15.6317318099999998
 -15.7082245399999998 -3.4447231500000002  7.4300246899999998
 -15.4443498100000003 -5.4035165899999997 -0.0533310800000000
 -15.3126808899999993 -7.1267216299999996 15.3034175700000006
 -26.4886186700000010  9.6522236299999999  7.6068817800000001
 -26.4120498999999995  7.7587554900000004 -0.2226623800000000
 -17.0090200899999999  0.5267638900000000 15.0523729999999993
 -16.9477573700000015 -0.8619781399999999  7.5170892199999999
 -17.0895102899999998 -2.6493880399999998  0.0773965600000000
 -16.7475117000000004 -4.5677891300000004 15.2366428900000006
 -17.0061475000000009 -6.3379936399999997  7.8603403600000004
 -16.9981060299999989 -8.2775367299999996 -0.2511445300000000
 -27.7926238400000010  8.8436985000000004 15.3620338800000003
 -27.9768453500000014  6.7237407700000000  7.4580557799999996
 -9.3601478799999995 16.2339868699999990  0.1612830200000000
 -9.2198620600000005 14.2239540400000006 15.5970780999999992
 -9.2598348500000007 12.3845584899999999  7.8733314400000003
 -9.4475555599999996 10.8215877400000000  0.1221449700000000
 -9.3845376300000005  9.0002145200000001 15.3684802900000008
 -9.3504757800000000  7.1056520399999998  7.6786057899999998
 -18.7284622200000008 -9.0899010100000002  7.6018793899999997
 -1.4952378000000000  3.0410838999999998 -0.1995716600000000
 -3.1604812999999998  3.2946282899999999 15.1670833500000004
 -4.8614769899999999  4.5904598900000000  7.4528456199999997
 -6.4132244199999997  5.4320953200000002  0.2099886100000000
 -7.5887224900000003  6.2688455400000000 15.3227179299999996
 -26.1645299000000016  6.0123300700000000 15.2698579500000005
 -26.2919692599999983  4.1508638700000002  7.3766555399999998
 -7.5897863499999998 13.3885636500000000  0.1206592600000000
 -7.6169356800000001 11.4201023999999993 15.2299584299999999
 -8.1595575100000008  9.8693868899999995  7.7581367400000003
 -7.5822581600000003  7.8102635700000000  0.1320243500000000
 -18.5635539200000004 -7.1425872699999999 15.0189567900000007
 -20.1431847700000013 -6.2247673700000004  7.9091157399999998
 -3.2361184100000000  5.4972190799999998 -0.0187964000000000
 -4.7277352099999996  6.3389364800000001 15.2152529899999998
 -6.3918993500000001  7.2567545000000004  7.5282450699999997
 -24.5733379099999993  5.4087488400000003 -0.1749934700000000
 -24.6207973899999999  3.0724951900000002 15.2248015300000006
 -24.9092276499999983  1.8244119100000000  7.5267442500000001
 -6.3310956100000002 10.7743440499999998 -0.1031775600000000
 -6.3719723699999999  8.8426668500000005 15.0407186799999995
 -18.6779364000000001 -5.5760049000000000  0.1906627700000000
 -20.0771931600000002 -4.5797094300000003 15.0110788700000004
 -21.4167372100000009 -3.6751034599999999  7.8583005100000003
 -4.8780250799999996  8.1179392200000002  0.2950425000000000
 -23.0664101200000005  4.2457999700000002  7.4831617799999997
 -23.0799144699999985  2.7623705500000000 -0.0730256300000000
 -23.1697882499999999  0.7524880600000000 15.1858060199999994
 -23.3748811500000002 -1.1652287900000000  7.5768499000000000
 -18.5704245499999985 -3.6045571100000000  7.6483678700000004
 -20.2011799100000005 -2.8802385500000001 -0.1397918700000000
 -21.5228261600000010 -2.1765343599999998 15.3141866300000000
 -21.6753909399999998  3.2136313500000000 15.3834307399999997
 -21.5985105200000014  1.4167583699999999  7.3760881200000004
 -21.8443331399999998  0.0214195700000000  0.0848645500000000
 -18.4341010800000014 -2.0008114199999998 15.1648231399999993
 -20.3514657800000016 -1.0620837200000000  7.6674573300000004
 -20.1043321599999985  2.6533571000000000 -0.2810949400000000
 -19.9056314599999986  0.5998372900000000 14.9240705100000000
 -18.5309874100000016  0.0159243600000000 -0.2352953700000000
 -18.3905242999999992  1.5549649699999999  7.5142204599999998
  0.1704620300000000  0.2107953700000000 17.8647982200000008
 -10.8573225699999991 16.8153191000000000  9.8918317299999998
 -10.9584766400000007 15.1520026300000001  2.6033528100000001
 -10.9001585900000002 13.5646863900000003 17.6872969500000004
 -10.8763509599999999 11.4337004600000007 10.2768365500000005
 -10.7934245600000001  9.7973732800000004  2.7318092699999998
 -10.6827321499999996  8.2155931199999994 17.5556863400000012
 -11.2436772600000001  6.2527506400000004 10.0726281600000007
 -11.0378346300000008  4.3229734500000001  2.2536903499999998
 -10.7446542899999997  2.4159029300000001 17.9557888199999987
 -10.6123606000000006  0.9541660400000000 10.2942905200000006
 -11.1001529800000007 -0.7857140700000000  2.7848617800000000
 -1.9147788400000001  0.8110253900000000  9.8810694899999998
 -1.5770292200000000 -0.9294839499999999  2.8549129400000002
 -12.3902604699999994 16.3437987599999985 17.5896714600000017
 -12.2965222099999991 14.0350605500000007 10.1828480300000006
 -12.5525416599999993 12.8198910200000000  2.5156768999999999
 -12.3640252999999998 10.8132397299999994 17.9892241499999983
 -12.7153375099999995  8.7926284100000007 10.0297403799999998
 -12.5892619000000003  7.4561128600000002  2.4642181700000001
 -12.2130750900000002  5.7053840400000002 17.6210022600000009
 -12.5473447599999997  3.7390752599999999 10.2478489199999991
 -12.6237347000000000  1.8099177099999999  2.4138288499999998
 -12.5255911399999995 -0.0812251700000000 17.7992476500000016
 -3.1027735999999999  2.2887098500000000  2.3690086799999999
 -3.0480450600000002 -0.0505391300000000 17.5861314200000010
 -3.1973188800000001 -1.8264008500000000 10.1783111000000002
 -14.1595561100000005 15.3105599699999999  2.4605108400000000
 -13.7571368900000000 13.5070628900000003 17.6858203699999983
 -14.0495479700000008 11.5684632000000001 10.0539895300000008
 -14.3464703799999995  9.9120198599999991  2.4597593700000000
 -13.7272843400000006  8.2207639100000005 17.8166394399999994
 -14.1674913599999996  6.0385993100000004 10.1993654399999993
 -14.1316978700000000  4.6350684199999996  2.2453163799999998
 -13.7037948899999993  3.1223293100000000 17.5185583399999985
 -13.9472137400000005  0.7538631300000000 10.2198734899999994
 -4.6398203999999996  2.7239797399999999 17.4890051799999995
 -4.7377214399999996  1.1969812799999999 10.1566537599999993
 -4.2762216400000002 -0.4928169700000000  2.7164168599999998
 -4.3178710100000002 -2.3324680700000000 17.5643135400000006
 -15.5618797400000002 14.2941778999999993 10.1052570700000004
 -15.8947335100000000 12.6836802300000002  2.4731708200000000
 -15.2408951699999999 10.6771173899999994 17.4172097699999995
 -15.7305870500000005  8.4910802499999996 10.5516343799999994
 -15.6942895300000007  7.2473703399999998  2.4916629600000002
 -15.4598107799999998  5.4914178299999996 17.6578924599999993
 -15.5058259399999994  3.5885421800000001 10.3919758000000009
 -15.5542025800000001  1.7210899700000000  2.3249944899999999
 -6.3102940700000003  3.6832645099999999 10.3254368099999994
 -5.9650911600000001  2.2247701200000001  2.9680463800000001
 -6.1950668100000001  0.0346484800000000 17.6767898999999993
 -6.0313178199999999 -1.7103273699999999  9.9727529799999992
 -17.2761018899999996 15.5996119600000007  2.3908191300000001
 -16.7525830000000013 13.4514277900000003 17.5830371599999999
 -17.0383562300000015 11.7767418500000005 10.0034600000000005
 -17.0485915199999987 10.0169325300000001  2.4680547599999998
 -17.0918547499999995  8.4728720600000003 17.4529045799999984
 -16.9452695499999990  6.1909885600000001 10.2128913699999995
 -17.1729733099999997  4.4615101900000003  2.1130019400000002
 -16.9529919000000007  2.8126939100000001 17.2632762600000014
 -7.7816379400000004  4.2299241700000003  2.5136250400000000
 -8.0549277600000000  2.4656280800000001 17.7685219900000000
 -8.0762754999999995  0.9356789300000000 10.2601103699999996
 -7.6755468300000000 -0.5175258100000000  2.6597030500000001
 -7.5425211200000000 -2.6274127799999998 17.6071220199999985
 -18.5649619299999991 14.2809113900000000 10.0503657499999992
 -18.5025674600000016 12.4380526899999992  2.7019095900000001
 -18.7305850900000017 10.8046935499999996 17.6909212300000007
 -18.7293243099999991  8.8823954900000004 10.4991755300000005
 -18.3861658400000003  7.0485475299999996  2.3556205100000001
 -18.4922195699999996  5.5485627099999997 17.4284301699999986
 -18.2420390999999995  3.4043868599999998 10.2052542299999995
 -9.3621478200000006  5.1134456500000001 17.5551007299999995
 -9.3341744599999998  3.7513618499999999 10.1164266299999994
 -9.3745391500000004  2.0328935800000001  2.5373422400000001
 -9.2544211000000001 -0.0506499600000000 17.6044815800000016
 -9.0940090500000004 -2.0740992999999999 10.0817738499999994
 -9.4878943000000007 -3.2888210000000000  2.5817154000000002
 -20.2046726999999997 13.2609504600000001 17.8914316800000002
 -20.1506911500000001 11.6610630299999993  9.8355542800000002
 -19.9396994399999983  9.8985824400000002  2.7883294400000000
 -20.0515881399999998  8.0556228799999996 17.2477262700000011
 -20.0098709200000009  6.1544075999999999  9.7701743400000005
 -20.1416946800000005  4.5581109199999998  2.3889860700000001
 -11.0543067100000005 -2.8546460300000001 17.6764687800000004
 -10.6457399499999994 -4.4523609300000002  9.9754751000000006
 -21.6223694600000016 12.5396641800000008  2.3765093899999998
 -21.9439885900000000 10.6103222899999992 17.9417668600000013
 -21.9083409099999997  8.7632756399999998 10.0223710100000005
 -21.6209066199999995  7.2955633799999999  2.4824597499999999
 -21.5065252200000003  5.4005942800000000 17.6091645700000008
 -12.3809541599999999 -1.5140377500000000  9.9242598399999995
 -12.7447648499999993 -3.7737051500000001  2.7122117000000001
 -12.4678625600000004 -5.5259250900000003 17.7401111299999990
 -23.4219675100000018 11.2876113399999998 10.0786532500000003
 -23.4176944200000001  9.8644145200000004  2.4277180700000001
 -23.2046212899999986  8.1911027999999995 17.6997609400000009
 -23.2259178599999991  5.8163749999999999  9.9551721700000009
 -13.9099579799999997 -0.8704226300000000  2.2650009600000001
 -13.7637708700000001 -2.6527775099999999 17.9831074899999983
 -13.9321470600000001 -4.6341999200000004  9.6714578200000005
 -14.3270994599999995 -6.4005999100000004  2.8509854099999998
 -24.9417988900000012 10.9646769600000002 17.8428405099999985
 -24.7940096700000012  8.5954665699999993  9.9201752800000005
 -25.1694175300000005  7.4347609200000004  2.3743367800000001
 -15.2876009199999991  0.3154618000000000 17.9451432699999991
 -15.3909439900000002 -1.8081254300000000  9.9296686199999993
 -15.8622393899999992 -3.5714615300000001  2.7434740899999999
 -15.3415264899999997 -5.5171705500000003 17.7659202000000001
 -15.4236411499999999 -7.4087200900000001 10.1273962799999993
 -26.5962716899999982  9.7361572200000008  2.4087763500000001
 -26.4267097200000016  8.0025765599999996 17.4937602699999992
 -16.9734203599999987  1.0713209100000001 10.0846072899999992
 -16.9241523100000002 -0.9005444700000000  2.5144191100000000
 -16.4069028199999991 -2.4505199499999999 17.5922590899999989
 -16.7920346699999996 -4.7225726300000002 10.0925068299999996
 -16.9524998700000005 -6.3274064499999998  2.6554771900000000
 -16.9465982699999991 -7.7034387600000001 17.9081185000000005
 -27.7427893599999997  8.8618456800000001  9.9678247899999999
 -27.9929464999999986  7.1213714599999998  2.5409719599999998
 -9.1422523499999997 16.3767119200000018 17.8333888999999992
 -9.0841360499999997 14.1699643999999996 10.4502099699999995
 -9.4964338999999995 12.6524237300000006  2.5323792699999998
 -9.2335863600000003 10.9832920699999992 17.7287765499999992
 -9.4183739299999996  8.8049863500000001 10.2337297300000003
 -9.3752325299999999  7.1196351299999998  2.2740747200000002
 -18.6122958700000005 -8.8974597800000002  2.6764554199999999
 -1.4840621500000000  3.2819906099999998 17.6419930700000016
 -3.5077551800000002  3.6285566299999998 10.2607020299999991
 -4.6996242900000000  4.6279864699999997  2.8201330800000002
 -6.4748397999999998  5.4040836900000002 17.8472467700000017
 -7.7398529900000002  6.2220667299999999 10.2884122900000001
 -26.3036802700000010  5.7777119399999997 10.4169864099999998
 -26.2780128899999994  4.6664228400000001  2.5201389600000002
 -7.6521098099999998 13.3566562100000006 17.8275604200000011
 -7.6730306099999996 11.5184461400000000 10.0261242900000003
 -7.9134560499999997 10.0193013400000002  2.2963586500000002
 -7.9559704800000004  8.0675497699999994 17.6648473199999998
 -18.4732495700000001 -7.6107289700000003 10.1954480200000006
 -20.1252244900000008 -5.8919916800000003  2.5347222600000001
 -3.4370986399999999  5.5912322500000000 17.5916409999999992
 -4.5295506500000000  6.1714044899999996  9.7448548200000005
 -6.3735990300000003  7.3747933999999997  2.6351502400000002
 -24.6639157000000004  5.1626269899999997 17.7227907100000017
 -24.7607929599999999  3.5002633099999998  9.9630439400000004
 -24.9226178099999984  1.8213726299999999  2.7030431799999999
 -6.2313646000000000 10.8711588599999995 17.7950231499999987
 -5.7308445900000002  8.9287515099999997 10.0594698200000003
 -18.5575930500000013 -4.9566209499999996 17.5073283599999989
 -19.6686254299999987 -4.8277898700000001 10.0906096200000004
 -21.8964361600000004 -3.4623805600000002  2.7749759400000000
 -4.4413574100000002  8.1186202699999992 17.7906941799999991
 -23.3003208800000010  4.9099912799999998  2.1246241900000000
 -23.3199475800000009  2.3915320599999998 17.8163674699999994
 -22.9472676200000016  1.0510827400000000 10.1614628699999994
 -23.1799622399999983 -0.6984994200000000  2.7842556400000000
 -18.5873446099999988 -3.7968134299999998  2.7773165899999999
 -20.2276387500000006 -2.6732357300000000 17.6239132599999984
 -21.4830878100000007 -1.8540349599999999 10.2374927899999992
 -21.6441250700000012  3.5160685900000002  9.9778917000000007
 -21.6216456000000008  1.8033749600000000  2.7039604100000001
 -21.6876540899999988 -0.1115512600000000 17.6641230000000000
 -18.6402450900000005 -1.9904799799999999 10.3472119300000003
 -19.9022067800000002 -1.0025166000000001  2.2866817899999998
 -19.9163419499999996  2.8126497499999998 17.6944318199999984
 -19.8631911800000012  0.9570220100000000 10.1334946499999994
 -18.6446684699999992  0.0433274600000000 17.7410057799999983
 -18.4355202200000008  1.6743564200000001  2.3265509099999999
  0.1445730900000000 -0.1233883600000000  5.0388245800000000
 -10.5659048099999993 17.2491387100000004 20.3922272100000015
 -11.0277566999999994 15.0750321100000004 12.9480802199999996
 -11.2063425399999996 13.2885600700000008  5.4223469399999997
 -10.8636660999999997 11.9971295100000006 20.4882637299999999
 -10.9669985899999993  9.7554731100000005 12.4432383400000006
 -11.0025553299999999  8.0489722900000000  5.1207942900000001
 -10.5195841300000001  6.7292333900000001 20.3073286700000004
 -10.7974458900000005  4.3763775999999996 12.6641939099999998
 -11.0946029900000003  2.6970816599999998  4.9957650100000004
 -11.0513500499999999  0.7644652199999999 20.4885886399999997
 -10.8376028400000006 -0.5178961399999999 12.3562138000000008
 -1.3603281700000001  1.0495210900000000 20.0967765299999996
 -1.3305607900000000 -0.9488345600000000 12.4594629200000000
 -12.3886280600000003 15.6885751700000000  5.0404533499999999
 -12.6116182400000003 14.5672385799999997 20.5701118200000010
 -12.6579660300000008 12.5924300000000002 12.6625269899999999
 -12.8441268900000001 10.6567003200000006  4.8780445200000004
 -12.6037610000000004  8.9575231100000003 20.2353938999999983
 -12.5480761699999999  7.2168325900000001 12.6606343999999993
 -12.5526357599999994  5.1865234899999999  5.2570380500000002
 -12.3629120300000004  3.8994166300000002 20.1047712300000008
 -12.9425968299999994  1.8873994000000001 12.7751630600000006
 -12.4884078600000006 -0.1752591500000000  5.1040983600000001
 -2.8731481400000001  1.6277290700000000 12.6364891799999999
 -2.9746173800000002  0.1386097100000000  4.9188467200000003
 -2.8257994399999999 -1.4963239200000000 20.2511350700000001
 -13.9585125199999993 15.0704192399999997 12.2969405100000007
 -14.2920446800000001 13.6181035300000008  5.0052222999999998
 -13.8116924300000008 11.9661434799999995 20.2656880500000014
 -13.8911928499999995  9.8272196699999999 12.6077833100000003
 -14.1880884999999992  8.2947230399999992  5.1142173399999997
 -13.7950532599999995  6.2383625199999999 20.2599955200000004
 -14.0237270400000007  4.5243930299999997 12.8141970399999998
 -14.1761891999999996  2.6064436600000001  5.1742153200000001
 -13.9588125900000009  1.0016889600000001 20.4466437300000017
 -4.4294860900000002  2.8816142400000002  5.3309740400000001
 -4.9338075400000001  1.3707567500000000 20.4025084800000016
 -4.6958923700000001 -1.1411243700000000 12.8040218800000005
 -4.7117211699999997 -2.6530711600000001  5.0143809499999996
 -15.4796592700000009 14.3193775900000002 20.4134590100000004
 -15.7180269900000003 12.7161567499999997 12.6217354600000000
 -15.5826313899999995 10.9318498900000005  5.0138123600000002
 -15.4851466900000005  9.1304586200000006 20.1770310399999993
 -15.6364924999999992  6.9344862200000001 12.6363017400000004
 -15.8400005700000008  5.5738635399999996  4.6878794299999997
 -15.4642716999999994  3.8316384700000001 19.7276321800000005
 -15.7102542100000004  1.6308013299999999 12.6824781299999998
 -6.1411965300000002  3.9949690100000002 20.1459791199999998
 -6.1616774799999998  1.7134289300000001 12.6263066800000008
 -6.1096721299999999  0.5397174300000001  5.4303577000000001
 -6.0720241399999999 -1.5959341400000000 20.2489398999999999
 -17.4624385099999984 14.8065859399999997 12.7213524600000003
 -17.1352160399999995 13.7626439600000001  5.1800802099999999
 -16.9966103599999983 11.6885244200000002 19.9749109400000009
 -17.0133619399999994  9.7019620999999994 12.5596469699999993
 -16.9869096599999985  8.7119798199999998  5.0664572500000000
 -17.0399914700000004  6.5241311199999998 20.1595983399999987
 -17.2433458500000008  4.5346276599999999 12.7556767499999992
 -16.9988719999999986  2.6945127200000001  4.9312757600000001
 -8.2886225099999997  4.7222254399999999 12.8829941500000000
 -8.0119279599999995  2.8283381200000002  5.2787780399999997
 -7.9456427700000001  0.9566415000000000 20.3876502299999984
 -7.5971220700000002 -1.1031419700000000 12.8445270100000002
 -7.6459380100000001 -2.5669954800000001  4.8067567999999996
 -18.7202892799999994 14.4944596699999995 20.1287080200000013
 -18.6623359899999990 12.3986303299999996 12.6485826699999997
 -18.3306132200000000 10.7695365299999999  5.0537791399999996
 -18.6081582400000016  8.9977467999999998 20.1173670899999983
 -18.6359182399999987  7.1357360099999996 12.6060227299999994
 -18.3878568000000016  5.3463633300000000  4.9994987399999999
 -18.2294207499999992  4.0065650599999998 19.9454699899999994
 -9.4919252200000006  5.4409319900000002  4.9713998200000002
 -9.2232735800000007  3.5876864999999998 20.3781360400000011
 -9.3368152400000000  1.8701765400000001 12.6940542700000005
 -9.1887741900000002  0.2099394000000000  4.8046771699999997
 -9.2836860399999992 -1.8136517599999999 20.1606449000000012
 -9.3146785800000007 -3.6130759800000001 12.6296910499999999
 -20.3588337199999998 13.2543166499999998  4.8677752200000004
 -20.1580075699999988 11.8729238499999994 20.1564032200000014
 -20.3021357199999990  9.8995584300000008 12.5461349799999997
 -20.0950206800000011  7.8811438899999997  4.8070255599999996
 -19.9384683799999998  6.2632284699999996 20.2035842000000017
 -20.2801062700000010  4.1780958600000000 12.4632017000000008
 -11.1047144899999992 -2.3205729499999999  5.0848735899999999
 -11.0249566600000009 -4.4101173100000004 20.2266199200000010
 -21.7835523199999983 12.6670702399999993 12.4815830699999992
 -21.8831326500000003 10.6574164099999997  4.7827012800000004
 -21.6392584600000006  8.7871216600000004 20.0065745499999998
 -21.7039728700000012  6.9953653899999999 12.4819759500000007
 -21.7665893600000011  5.1174926000000003  4.9546490399999996
 -12.5085007600000004 -1.6068904700000000 20.1279134699999993
 -12.5117970300000003 -2.9789956700000002 12.5962265000000002
 -12.5706380000000006 -5.7837377900000000  4.9584134100000004
 -23.0517333300000011 11.5779555799999994 20.3097519499999990
 -23.0858244600000013 10.0042871699999996 12.7409928099999998
 -23.4412977799999993  7.7569254900000004  4.6993141899999999
 -23.2088687299999989  6.2415572900000003 19.9693497200000003
 -14.1576430999999996 -0.7223519000000000 12.6305667600000007
 -14.1254755900000006 -2.6170833299999998  4.8376562400000003
 -13.9370525799999996 -4.3002699800000004 20.5061200600000006
 -14.0993637100000004 -6.1903227300000001 12.8862224399999992
 -24.9203553000000007 10.7424336500000006  4.9992327799999998
 -24.6228078500000009  8.7615953999999991 20.1892009700000017
 -24.7538811900000013  7.2333110200000004 12.9004400500000003
 -15.5369189799999994  0.1664127800000000  5.1765117299999996
 -15.2216962700000007 -1.5160938100000001 20.2221802599999982
 -15.7141912099999992 -3.3613936299999998 12.9403377000000006
 -15.6451335399999998 -5.4923755099999996  5.1748035999999997
 -15.2415423299999997 -7.1837372500000001 20.4214131700000010
 -26.1764166500000002  9.7746204700000003 12.5842130999999995
 -26.5429390100000013  7.9291346000000003  5.1875090600000000
 -17.1050198999999985  1.2744969500000001 20.0582805300000011
 -17.0932701999999992 -1.0401628500000000 12.6227803499999993
 -16.9029453200000006 -2.5040755400000001  5.2562820700000001
 -17.1795350900000017 -4.4934099999999999 20.2917339900000009
 -16.9854755600000011 -6.3958646500000000 12.7802471600000001
 -16.9808656300000003 -8.0455726700000003  5.0740256300000004
 -27.6369828800000015  8.9585933099999995 20.1931326499999990
 -27.8345995899999998  7.1038484000000004 12.6161497899999997
 -9.5674265199999997 15.9784055400000007  4.9330597000000003
 -9.2706956700000003 14.4235328200000001 20.1269177100000007
 -9.5317214499999992 12.3987221099999996 12.5310158499999993
 -9.6252334400000006 10.2268366600000000  5.0962130099999996
 -9.4722319600000002  9.4008798000000002 20.4340377199999992
 -9.4519634499999992  6.9592184000000001 13.2547292999999993
 -18.5976394499999991 -9.1666132000000005 12.6559486700000008
 -1.6167375399999999  2.9668159799999998  5.1933958300000000
 -3.0664370000000001  3.7419547999999998 20.1044242699999991
 -4.8558441300000004  4.4478780200000001 12.7014790000000009
 -6.3564933500000000  5.1801555700000002  5.2503986800000000
 -7.7714171299999997  6.6027610499999998 20.0459146699999984
 -26.4401984200000015  6.0767461000000003 20.1376050100000015
 -26.4854306000000008  4.5163765299999996 13.0996567699999993
 -7.7261605299999996 13.3764377700000008  5.0106153600000001
 -7.5311485300000003 11.7237444400000008 20.3366810399999984
 -7.7387990499999999  9.4420968500000004 12.6008302200000006
 -7.6628602600000004  8.1104614700000006  5.0394827299999996
 -18.5620046199999997 -7.0092799100000001 20.0711285000000004
 -20.0382626200000011 -6.6125104900000000 12.7024161099999997
 -2.6973975200000000  5.5346328099999997  5.1724515599999998
 -4.5179534300000004  6.4934373200000000 20.5504053199999994
 -6.2940544100000002  7.1868567700000003 12.7097420700000008
 -24.8021627199999983  5.2554641999999996  5.1954796099999996
 -24.8797956700000000  3.5968444100000001 20.2487059800000004
 -24.7829172699999987  1.5451740500000000 12.3719158799999995