Li                                      
   1.00000000000000     
   -10.5278949999999991   18.2348490367503473   -0.0000000000000021
   -18.0478199999999980  -10.4199137352859115    0.0000000000000046
    -0.0000000000000002    0.0000000000000000   22.0820499999999988
   Li
   504
Direct
  0.0131643604705189  0.9864359698414660  0.0207371299313266
  0.9285756377259631  0.0160583702886541  0.6968804404482398
  0.8488127115169348  0.1050905681951875  0.3194282337916974
  0.7941746078408016  0.1518500731382488  0.9946696411791507
  0.7027006427962519  0.1703336461804597  0.6675261182725336
  0.6211092386291384  0.2216719610558187  0.3439723703188804
  0.5593705447761579  0.2641975633901410  0.0010898086907716
  0.5052302043824355  0.2944452558499151  0.6605499136176221
  0.4327878543791641  0.3524070969136872  0.3169936486875073
  0.3597754540854510  0.3896948415825889  0.9977199743683229
  0.2738314820633008  0.4192687903105821  0.6812333741658918
  0.2217156240362996  0.4512708005890076  0.3374151888071992
  0.0693646828634158  0.0081418975868388  0.6878859422019232
  0.9832915619852329  0.0763972308585465  0.3561959700299582
  0.9331061259361917  0.1171881574775782  0.0180225522539814
  0.8587811204044726  0.1617859983310694  0.6731183880119858
  0.7857649935095381  0.2367008266735766  0.3286003636437727
  0.6925502413454083  0.2620389391566889  0.0086683364995537
  0.6367710708271161  0.2959248162545123  0.6771889598112466
  0.5707342301753258  0.3623103783065389  0.3318263218315352
  0.4871452118825701  0.3789764951970653  0.9897249725455737
  0.4355115434936465  0.4280979519305390  0.6696527374043626
  0.3592931915318829  0.4736216731626044  0.3061791690535998
  0.2666958778406254  0.5218803590218144  0.0055658727337331
  0.1371186616025426  0.0554067825425975  0.3255343163338580
  0.0819110788160131  0.1119492278229899  0.0113371331013212
  0.9992958433030807  0.1379430478455959  0.6680936249125438
  0.9221855078582237  0.2279258072579893  0.3558981888004027
  0.8622256565784738  0.2561950829094997  0.9972787073663909
  0.7694432860273395  0.3005819714652063  0.6700452960662631
  0.7213573271279827  0.3472534085843080  0.3328087147705929
  0.6487853263068502  0.3842448127862923  0.0067097316598748
  0.6002751586212085  0.4227685919367303  0.6793755683915208
  0.5147125484261323  0.4714650747285418  0.3308128783333046
  0.4130063259211738  0.5139502159466431  0.9874584325277738
  0.3513378559730072  0.5481339260249243  0.6504014926150461
  0.2148424686491381  0.1101010902436457  0.9826705160979188
  0.1258181162386762  0.1406429038599342  0.6964892761315156
  0.0790302268948935  0.1926741994004999  0.3262557085958946
  0.9748772670066970  0.2496694207425918  0.0002356425241317
  0.9284799531299157  0.2775004767247964  0.6513998890501540
  0.8704509764094084  0.3468727966986762  0.3555614229657138
  0.7889619711388676  0.3790102538066620  0.0033892990007729
  0.7092130106057795  0.4245026624660753  0.6892001209126875
  0.6406810901764715  0.4834016420895466  0.3390260387962201
  0.5709999443482232  0.5131878709393192  0.9949677566168020
  0.5025739212943705  0.5517250181392868  0.6647914894676887
  0.4496175468854560  0.5539395304381571  0.3339118822754230
  0.2829560524839110  0.1623719374326029  0.6547558483021305
  0.2195245785521820  0.2020459932049050  0.3381932329652386
  0.1357776426838058  0.2439356257142080  0.0002512497707414
  0.0663133273810743  0.2803136108533550  0.6573610076962950
  0.0007521534334884  0.3429273755848854  0.3218117298892054
  0.9124211285039081  0.3775630044697564  0.9795733462246474
  0.8540279934137303  0.4102803949884049  0.6747157528399796
  0.7981519067019462  0.4918842648138195  0.3589960809798001
  0.7128803426063683  0.5062593695790483  0.9957093489961295
  0.6570513401825337  0.5444751743395599  0.6609124035132581
  0.5779607405532303  0.5840217277950117  0.3529303909736612
  0.5271245803076852  0.6317239559460148  0.0017834417547249
  0.3543178564780547  0.2185656284456527  0.3197051582620247
  0.2586776281031504  0.2615059631845256  0.9986475915958906
  0.2184606251377730  0.3013140837461350  0.6722696620105495
  0.1484121897744615  0.3377134739450227  0.3316442060406501
  0.0651675566739627  0.3756981101279848  0.0004192246643768
  0.0164666902116579  0.4152065714559541  0.6622300972962236
  0.9191258361303980  0.4455200077035357  0.3343453098783868
  0.8572149616530922  0.4995388762347588  0.9638077076177254
  0.7866580887916825  0.5659005076679904  0.6460745392751122
  0.7037928906437116  0.5894881800437162  0.3499247755529922
  0.6666457453324597  0.6443560242147299  0.9733779513224547
  0.5856428997359160  0.6817041960793446  0.6482763049626286
  0.4220490412850850  0.2502588860316663  0.0024940542205059
  0.3527577866908658  0.2766190565556528  0.6775562110401907
  0.2687349276510886  0.3329723090576451  0.3407448746832813
  0.2038579669101566  0.3980742083784321  0.9941277413102512
  0.1385154076568824  0.4149514446789766  0.6613657654067424
  0.0636641671262197  0.4523244881228123  0.3416854273040784
  0.9956726509971432  0.4864710572207827  0.9990088479104102
  0.9270559106979590  0.5357375734599827  0.6551145563930874
  0.8426764788572143  0.6045966616256990  0.3254881340274096
  0.7897446942997348  0.6060028142792504  0.9949743719446360
  0.7298805284984624  0.6880733059961628  0.6585304181450553
  0.6270878905559769  0.7020554251125688  0.3359428630946866
  0.1434147134688502  0.5041354864545937  0.9970148967147523
  0.0743414184674123  0.5299322080020730  0.6402289474935543
  0.9757284431658491  0.5741069997283006  0.3214301706589708
  0.9242479319874093  0.6127026609346444  0.9889337217332610
  0.8576110053338297  0.6392571842472421  0.6489933733507556
  0.7632182010450421  0.7078489616645669  0.3351947699602178
  0.7198486320853164  0.7520044152430714  0.0094141159901397
  0.2100539475211889  0.5405202725958844  0.6586889025249008
  0.1299371875713859  0.5786457069415150  0.3182930298590918
  0.0659835200006000  0.6161764933218166  0.9847854972704084
  0.9854621493418918  0.6778459384709237  0.6756845890666838
  0.9196818074707664  0.7060298317213665  0.3322886702095147
  0.8787501146439567  0.7592786708749557  0.9813346980918922
  0.7785456324433682  0.7941526826468603  0.6613257763658709
  0.2705584444313800  0.5745103589055702  0.3174987462667644
  0.2041280402384444  0.6287229917970123  0.9874587866615627
  0.1437802352118993  0.6643881494060651  0.6546607638330713
  0.0492186515002047  0.7029901193032870  0.3293006776997629
  0.0215386687524628  0.7503742217583209  0.0042656266062266
  0.9178815688891362  0.7721184835786232  0.6686328986665657
  0.8476108666669262  0.8282551607269824  0.3120991379876443
  0.3720344551677357  0.6034847510453787  0.0086289737592296
  0.2786256979028252  0.6763985411078650  0.6619308352258955
  0.2256491287839921  0.7018661492258147  0.3160010904784656
  0.1385214337756437  0.7377701378870469  0.0037420497643978
  0.0778734640508674  0.7980870352865992  0.6414990591906076
  0.9932930707844179  0.8050154260489109  0.3211414379552622
  0.9477051028291257  0.8645001139445512  0.0094761650299660
  0.4085512575347536  0.6567168643390815  0.6768149057718844
  0.3604890920428829  0.6850413673411637  0.3385708618538601
  0.2930107075935808  0.7541415858856695  0.0072519150169512
  0.2060486138789273  0.7866607849694418  0.6722750971943299
  0.1466063103488722  0.8143818022514395  0.3321304453164444
  0.0977409168973935  0.8816328376336031  0.0196519186398021
  0.9794635807586332  0.9064934981315815  0.6680859960918468
  0.9338599239597087  0.9442787641856043  0.3329182272479230
  0.8709788147162598  0.9936778642208708  0.9945040102707878
  0.7976947324882815  0.0327287857652721  0.6720672061697144
  0.7176386332862421  0.0934056207796274  0.3483132213721092
  0.6284399275094401  0.1094207903986728  0.0162854852697123
  0.5803907746563794  0.1707520362818897  0.6502445416073215
  0.5011961674105265  0.2413711614532659  0.3390309545535857
  0.0344476519468486  0.9570569945459937  0.3322477641342161
  0.1401449782706266  0.9770047714344230  0.0141910868782560
  0.2222710003720110  0.0393268387283641  0.6671673535745128
  0.2820277079466891  0.0832359998961962  0.3337642256946225
  0.3744893483988818  0.1395821252338578  0.9881021336334257
  0.4251516833633673  0.1525400213697381  0.6713171023523614
  0.8571370923651926  0.8984091846535449  0.6729880427768222
  0.7868978512655929  0.9781758548207051  0.3251736591484971
  0.7337520635944799  0.0173117057042873  0.0107701739648292
  0.6651964074172767  0.0551467577986529  0.6786558643785341
  0.5571824031084631  0.1013031060940577  0.3285466077651336
  0.4977238897008505  0.1348890198504762  0.9961044291630543
  0.1441018677289847  0.8941093055696143  0.6502122801098622
  0.2028621173926197  0.9283710020718772  0.3312627360231488
  0.2777159401752058  0.9882685078867794  0.0085348393831168
  0.3502839813470118  0.0461626076831863  0.6735261101211165
  0.4064540824857019  0.1189347038738831  0.3271481311744182
  0.8004179741190001  0.8611281064617486  0.0118526314359428
  0.7036523281651128  0.9172270530497357  0.6669682022276007
  0.6244547534006912  0.9864825227615697  0.3368115895036894
  0.5628813702540754  0.0176567893800481  0.0205558233950214
  0.5000963497094091  0.0282135388305065  0.6792043514981643
  0.2110808590770290  0.8683821286519517  0.0130241214017701
  0.2808700075867989  0.9073335977130199  0.6656749196745793
  0.3599603153243152  0.9646862089769641  0.3222218806677830
  0.4069248642602901  0.9987985139578299  0.0042426201371697
  0.7057431998395813  0.8301156264371485  0.3231406210021248
  0.6528348320354169  0.9052239354109517  0.0066248351036222
  0.5760047203338416  0.9123687567152672  0.6618964883242242
  0.4934222917857340  0.9714242391280763  0.3457745589743695
  0.3122964803726376  0.8056137265202850  0.3220790927472734
  0.3695284456894967  0.8478495471623617  0.0121785133173802
  0.4513574390952613  0.9261132144345510  0.6727987265675068
  0.6387008923442252  0.7836429906212317  0.6586205483639418
  0.5658709290585193  0.8625486576949157  0.3359632112960540
  0.5134986359138125  0.8854384096503694  0.9953374994622308
  0.3621466484803548  0.7843763712291505  0.6669076281414092
  0.4366483311980645  0.8508478723314852  0.3283007071354334
  0.5855724413749996  0.7645282927417512  0.0083518192377952
  0.4963367424806435  0.7968436238017560  0.6811306169490621
  0.4347122588733043  0.7355566158887328  0.0153949660470829
  0.4953921640414052  0.7108450025071917  0.3256770535344344
  0.9894530073590957  0.9732660033781997  0.7989335392320882
  0.9299505128080625  0.0391075706628570  0.4363896390960065
  0.8431158440353386  0.0940665576872775  0.1102242699387048
  0.7775835232961938  0.1132761720256354  0.7734551529409615
  0.7307394024943861  0.1500773316764210  0.4463734399659458
  0.6420926283346731  0.2049228227352984  0.1039458596461813
  0.5856591101434461  0.2465854714096452  0.7737509687732782
  0.5046134161445366  0.2958359890135753  0.4475222866536370
  0.4370699564215883  0.3592907243721939  0.1246575154933538
  0.3532373025510012  0.3788421753242162  0.8053151528051075
  0.2658311891643237  0.4105706258569057  0.4350232890515144
  0.2226651712842909  0.4676873022094625  0.0976991791975834
  0.0864633931315737  0.0401330645899094  0.4539373051867912
  0.9865296158359982  0.1076187007676452  0.1205825450988485
  0.9285161131917050  0.1067843381920710  0.7916808018277308
  0.8590935892978493  0.1619944024651758  0.4485255807318609
  0.7947111828846474  0.2245664923112400  0.1070794794867354
  0.7245501299915915  0.2548543613141163  0.7856342427446705
  0.6544851771334166  0.3168476971779981  0.4370817840734915
  0.5728811380713523  0.3197857691900907  0.0960432410034429
  0.5035122977939182  0.3720734669127310  0.7631149807196351
  0.4257678227437225  0.4293150966585131  0.4317235193290472
  0.3613607234766647  0.4742028625126835  0.1089528218621041
  0.2855046536099053  0.5021498565911884  0.7694799314375231
  0.1539969145816045  0.0924556502093239  0.1028545221118478
  0.0413471891986035  0.0945949341012877  0.7943895910932213
  0.0101741221065623  0.1502000890270949  0.4551384287237852
  0.9213298665259728  0.2160499747255074  0.1308568751542509
  0.8597970099195393  0.2332086195592140  0.7778927056138372
  0.7872618232212361  0.2881556724090899  0.4476567248058956
  0.7022483737053591  0.3669137152137623  0.1167387529690416
  0.6431940740122926  0.3839649245269712  0.7892563213107451
  0.5639459373462898  0.4392822482683059  0.4628067788090320
  0.5159588601803478  0.4645420641219573  0.1054255338612151
  0.4311155750463200  0.5059624870509367  0.7673312450610368
  0.3577814123018044  0.5321366723701217  0.4493003059045719
  0.2029676856817630  0.1115011052165542  0.7764639727742662
  0.1443396435872089  0.1770631665196376  0.4411190269925100
  0.0674708535284694  0.2114636958087956  0.1074129684517544
  0.9930266847500775  0.2436408957288521  0.7706542350008263
  0.9340701763637327  0.2953205174149076  0.4447638326151804
  0.8605290102778582  0.3395901275245876  0.1071213927148946
  0.7784681829333309  0.3780209986157388  0.7897925957961363
  0.7029899754954414  0.4281712085964600  0.4519304444107348
  0.6282731864367221  0.4685295504874674  0.1056441612078558
  0.5687599963334975  0.4974397449886183  0.7810957922837787
  0.5108760732157904  0.5551585539512160  0.4575084763416442
  0.4466843614643068  0.5725661622490534  0.1034580974139629
  0.2936188836133837  0.2033962862717544  0.4450903666099819
  0.1976329992904482  0.2146158829673084  0.1115331456997879
  0.1299249553789181  0.2284914384059178  0.7773071001107255
  0.0556652153636037  0.2997678798602621  0.4498257222495212
  0.0029002602682908  0.3373724624039269  0.1078518923741214
  0.9242681982225776  0.3700211663942525  0.7707675043757263
  0.8526261058808799  0.4228068300230845  0.4749141669364931
  0.7907768504184389  0.4783357824027519  0.1049697958296463
  0.7131705950369636  0.5150917190199920  0.7733727729083100
  0.6453253954249050  0.5648003097400789  0.4709876804916178
  0.5861032554228629  0.5775677731576394  0.1073595182512506
  0.5143027644782805  0.6292072675460503  0.7769659877592900
  0.3554049714430576  0.2212999895926160  0.1215676171369964
  0.2822422226921333  0.2358098526542634  0.7888982739374271
  0.2110278659702516  0.2931877764179305  0.4607716579755987
  0.1450019863130620  0.3328976936441421  0.0939311956996747
  0.0836512098268543  0.3694884094765953  0.7747822416849885
  0.9946041734125544  0.4042200435149965  0.4413223278635812
  0.9114948594986885  0.4765039919590350  0.1021706974669456
  0.8452529004115448  0.5031486027687464  0.7681810733152048
  0.7709888752902643  0.5406436447602019  0.4519707264497654
  0.7132513052370939  0.5997654591995598  0.1043776438328834
  0.6498525151235839  0.6338686669798861  0.7659651051419587
  0.5493003017591604  0.6663565577233825  0.4491969798999662
  0.4174590792751616  0.2531318988439821  0.7742842041386524
  0.3673721805353267  0.2968383022106309  0.4266561967752054
  0.2837382929276089  0.3457873019887643  0.1079475795951907
  0.2213610841979019  0.3769673571920791  0.7829422934011987
  0.1244294873608496  0.4069935755210921  0.4346036441363026
  0.0709048022845451  0.4470570039236037  0.0979647356110505
  0.9979888284080971  0.4882662040815191  0.7585482054428851
  0.9376813895794385  0.5442723008681156  0.4308435181516188
  0.8756943344642067  0.6048448923286003  0.1055810212367092
  0.7764749891683067  0.6369118676887240  0.7519484545139576
  0.7138132851254042  0.6826159366945532  0.4445493973612074
  0.6714472505757954  0.7067904272039129  0.1065913993492487
  0.1637520221010078  0.5015887007562654  0.7939303230451884
  0.0585559064386061  0.5731174216822055  0.4228908457321694
  0.9911303633893240  0.5549762626691432  0.1018622405981304
  0.9293383045455883  0.6166104327429025  0.7744894210456010
  0.8643983962830291  0.6855171564080251  0.4302284307842825
  0.7853140679943849  0.7207985629362597  0.1077511911258213
  0.7093933177072174  0.7625224169720610  0.7755256042803964
  0.2086726425356389  0.5418488221853011  0.4353237674944097
  0.1512377461955765  0.5749185917200208  0.1190086169535860
  0.0672682619145633  0.5986921839718562  0.7743224492291247
  0.9837082563670592  0.6829266740434292  0.4372066814448843
  0.9515423152436142  0.7030038152562668  0.0900296082111964
  0.8722828585523317  0.7382392214052018  0.7754695700806735
  0.7919921833303576  0.8098952540017166  0.4452623026394775
  0.2935662447617915  0.5834740660979350  0.1029954764163676
  0.2270080274087292  0.6208977285502542  0.7781928299229435
  0.1466662986682223  0.6867991911257079  0.4327625600883991
  0.0828115431427392  0.6801730319232604  0.1094877649493569
  0.0289198533031936  0.7453776656132760  0.7843878204242785
  0.9256729389910703  0.7842386451084167  0.4426258802964398
  0.8641563914359907  0.8264903876137382  0.1174691326212951
  0.3510634057253270  0.6263940529205954  0.7730628469729908
  0.2730480216400721  0.6778685768262065  0.4624009840571901
  0.2182606993960121  0.6899990255960162  0.1134641557282947
  0.1455099048863175  0.7474376877593443  0.7748264957284334
  0.0868851971027098  0.8268345095334695  0.4350114862524066
  0.0118010153994490  0.8143793765109137  0.1079665841713080
  0.9519444366280894  0.8507459225183638  0.7702589428970583
  0.3980623730300294  0.6370657078411099  0.4499018130110173
  0.3617522806655273  0.7051405667356434  0.0975962929166414
  0.2862113410829821  0.7390108740706154  0.7787765298058815
  0.2285576733247225  0.7973821338972229  0.4372164966567880
  0.1364443126350139  0.8323479707372670  0.1340954585285346
  0.0888470988560073  0.8574271104315798  0.7739688389438513
  0.9727739133083944  0.9200763777536594  0.4393408832060430
  0.9400079271092423  0.9571377055082664  0.1149549339848406
  0.8681697860755406  0.9577136535063104  0.8001342085540060
  0.7951411263653796  0.0127179577058882  0.4517544390126815
  0.7183939038184874  0.0957499150567145  0.1185380143600767
  0.6393692360261269  0.1178342113832400  0.7897283694222210
  0.5894429604069344  0.1766693242921704  0.4600514902375465
  0.4901165041303699  0.1834755154222734  0.1150339175936992
  0.0721876542021036  0.9519092785867755  0.1410917315194951
  0.1457162409920869  0.9831269070192761  0.7678832513285698
  0.2405639880793586  0.0573953836374272  0.4302514078176642
  0.2881932300301031  0.1084424969072302  0.0784382795075658
  0.3419112198164100  0.1100288876136233  0.7931320706184408
  0.4342135389043733  0.1786019893170661  0.4460624914806388
  0.8628495801001250  0.9101936710312799  0.4373582027031020
  0.7761296076743278  0.9539706221589910  0.1103295137906102
  0.7112275638158323  0.9880891496613486  0.7733629409407214
  0.6494832394789753  0.0411987425908222  0.4399741686120606
  0.5778104186767337  0.0945065632450479  0.1337651920904079
  0.4912438792189491  0.1192855602610265  0.7764184308069204
  0.1420204304024324  0.9346394927957178  0.4379529024705562
  0.2040370139247401  0.9690456028089116  0.1004414671645080
  0.2870464891287270  0.9883449664465900  0.7651390563828997
  0.3746038058886612  0.0589175797965495  0.4443344992878835
  0.4371162805603035  0.0857299244712451  0.1175092045349047
  0.7876514833758606  0.8606377865262829  0.7703275474876676
  0.7178263044220898  0.9296545299546537  0.4278783790454241
  0.6364255619164254  0.9663333565398986  0.1302352376704121
  0.5777690216760263  0.0039229195294510  0.7868007703089148
  0.5221964534367629  0.0529651530680937  0.4520232496529957
  0.2303149823522475  0.8845452619135514  0.7827329681800350
  0.2953636042067984  0.9278455973125403  0.4423407020634400
  0.3567479467324901  0.9769735106696942  0.0971151799764982
  0.4110609856740481  0.0032975852057007  0.7981646115283709
  0.6953708008949278  0.8227432948750746  0.1087261526896270
  0.6365848617176795  0.8666433429215701  0.7918057779961529
  0.5807731083237115  0.9131983849985374  0.4587099408795865
  0.4851786624020349  0.9567178066930495  0.0910503168863386
  0.2969850786082588  0.8410160925721470  0.1191434404867309
  0.3433285775443906  0.8712285957591135  0.7900629248643156
  0.4264874481857319  0.9352378667718710  0.4580041916398159
  0.6316968540338337  0.7874444480774656  0.4232203545413569
  0.5794120549358297  0.8317733545603474  0.1200135979222949
  0.4938108094125511  0.8731395713520911  0.7900388025568290
  0.3595610383411909  0.7997186786134307  0.4499604207942625
  0.4266298093375909  0.8259715335937443  0.1145572761586919
  0.5754539646754964  0.7554359924114209  0.7749269728127572
  0.4813572318218178  0.7939347037974258  0.4367518627120219
  0.4291557066426464  0.7562595223032673  0.7842619308442806
  0.5164354939379834  0.7054593383327088  0.1134691493769822
  0.9926520933204444  0.0095364293300904  0.2238542263965542
  0.9464132436558330  0.0193351720142374  0.8998543916891748
  0.8754593748762574  0.0831488437128201  0.5627716878641280
  0.7927656879777345  0.1488085152316287  0.2204618443486908
  0.7267742653680287  0.1659837285335968  0.8963942165695684
  0.6679109599831605  0.2024932248852238  0.5489471797228944
  0.5776933522940695  0.2482276604515121  0.2235934168249756
  0.4871504522940810  0.2931035576066989  0.8754933024787093
  0.4204147492020809  0.3351364582508651  0.5528082927083275
  0.3605946388922092  0.3884028837931623  0.2240565300775970
  0.2865147400006265  0.4147151761997350  0.8965740993250151
  0.1934854020971102  0.4661029267074284  0.5451596930538614
  0.0752214568232290  0.0402376065817336  0.8955046904612587
  0.0002785687568831  0.0755173448858244  0.5619940408612436
  0.9253487201617716  0.1440723835761020  0.2424202974814378
  0.8590785998974866  0.1479110498404950  0.8845079075538749
  0.7985329287975205  0.2077569596537003  0.5613537687850538
  0.7194517133911873  0.2687094321556600  0.2292079050631628
  0.6401009327465559  0.2868093232668656  0.8894474906088874
  0.5727363719766316  0.3330052617517865  0.5527319175529470
  0.5007972187229157  0.3834658177548889  0.2156358091753248
  0.4254190660793071  0.4231488080731651  0.8782260360790772
  0.3463679215154727  0.4666446751417581  0.5490863909827226
  0.2852647211046957  0.5006842981038986  0.2144378864281151
  0.1284444979597978  0.0911567287434991  0.5617261458967775
  0.0597101066863104  0.1280906910844521  0.2186755002366141
  0.9976378343250616  0.1541317983112833  0.8846899160177628
  0.9234613283058195  0.2070120595748293  0.5467482960141865
  0.8639382952044414  0.2677071270440763  0.2264075767421971
  0.7869850434571646  0.2847986352873946  0.8835428866432267
  0.7140875425898727  0.3425376993346489  0.5591363505652751
  0.6256276661612503  0.3938435557069653  0.2213613124687228
  0.5582142019074183  0.4077084897128813  0.8877882424865433
  0.4895425769442170  0.4568537214966639  0.5742855301025074
  0.4418987550174052  0.4951276966717373  0.2048197576764821
  0.3629061343605926  0.5422137234633198  0.8680860173761076
  0.2032490629126684  0.1264605324525121  0.2398996623954730
  0.1526757576621733  0.1533641816179028  0.8815029021309186
  0.0726056095642704  0.2134076822628046  0.5530219730505124
  0.0008016565885143  0.2669418036976268  0.2350665970777186
  0.9215690752841610  0.2830235297205590  0.8864948648336579
  0.8614778347852763  0.3302239090678682  0.5644883341899884
  0.7837908655923442  0.3963559723603538  0.2266351575148136
  0.7192710533298694  0.4277173311792595  0.8866776404364600
  0.6569745208306799  0.4684171992528334  0.5563412314526985
  0.5847197544896474  0.4869189813676797  0.2348861296845186
  0.5105719928009620  0.5382825648665985  0.8851112826934084
  0.4320850075690359  0.5956466830475335  0.5559367599475564
  0.2919632703864536  0.1596920168482825  0.9010358983880593
  0.2202532509690371  0.2056589848740344  0.5610439225524786
  0.1302178743672329  0.2370893227846125  0.2287253937021276
  0.0685850797060752  0.2725823175479292  0.8823449928788349
  0.9846567647233826  0.3475551429453816  0.5698582545551716
  0.9311786594282339  0.3787229674996127  0.2100055560964691
  0.8509658409999972  0.4237689752759835  0.8896738495746561
  0.7992149822913035  0.4602875706877825  0.5724686458005479
  0.7086941916902632  0.5162678967750693  0.2089864754404616
  0.6612005203764824  0.5385643206509698  0.8721606146168526
  0.5762226720550458  0.5950546438287319  0.5679559135134653
  0.5112626117750665  0.6315565378980068  0.2116479692782178
  0.3628427499792721  0.2049732564213826  0.5592552389837024
  0.2848491623281788  0.2691140823750970  0.2083759945294901
  0.2127141806777146  0.3001536540598266  0.8761090297322909
  0.1394027937911986  0.3366871635610025  0.5670930135562600
  0.0898964808526586  0.3688501541301790  0.2099557830907912
  0.0028098849810618  0.4024238531832296  0.8912195203796784
  0.9201649717535219  0.4618471535454702  0.5609151442008340
  0.8433134918285745  0.5219252877048532  0.2237348194574338
  0.7756686993426953  0.5395309709723151  0.8738156634008192
  0.7308611481946272  0.6127926820096548  0.5559805113202785
  0.6227616819022970  0.6196793475837623  0.2480136780778963
  0.5762128488700426  0.6675444441181995  0.8788121474229058
  0.4413269425698658  0.2618565770244530  0.2048465867073048
  0.3498024604074246  0.2972060207874918  0.8936702833296692
  0.2861284506599517  0.3442821700869914  0.5615084668316541
  0.2119460938394155  0.3750460315095410  0.2116461247936670
  0.1396250451509218  0.4110118604507846  0.8809070099922778
  0.0689711837895572  0.4588003015897684  0.5228062041341275
  0.0113322325672982  0.4676467387981447  0.2179255531076123
  0.9531814426450325  0.5224984073358740  0.8644528841298680
  0.8855795777026003  0.5879340669290087  0.5462751990870416
  0.7756702579404049  0.6268747488494739  0.2189560009147726
  0.7226890792730529  0.6651806758803360  0.8645990553413299
  0.6561902571085696  0.6898474172026283  0.5513185591917420
  0.1463489279642189  0.4664316578417882  0.2315955076634637
  0.0685077481485195  0.5243219995991737  0.8944334950785802
  0.0148561028923879  0.5965173444016898  0.5400108880289665
  0.9297605409325698  0.6094464633356651  0.2157737909297381
  0.8622840682996866  0.6261603395184636  0.8713313170652199
  0.8132927634100753  0.7099093986176115  0.5513224342848630
  0.6939722141974656  0.7292164181608385  0.2153550743703576
  0.2027205875178737  0.5497414014697313  0.8866667275003906
  0.1566130618263273  0.5961172085860724  0.5212683197438679
  0.0675092340715793  0.5940985183896998  0.2237761725020988
  0.9959884559151888  0.6583078363432691  0.8968784419924773
  0.9325271660888816  0.7202991048652265  0.5509836826743921
  0.8405944926442217  0.7390585114359212  0.2163495033296243
  0.7868198306789509  0.7720199308666764  0.9003534631069101
  0.2739074560413570  0.5808978005697867  0.5443511770872718
  0.1975044994356310  0.6161301546621232  0.2078452290434996
  0.1343147890671403  0.6722073454718611  0.8800465409687988
  0.0540207976797262  0.6989231538330714  0.5501105884643849
  0.9909248502224202  0.7376819900668181  0.2133193516906289
  0.9373688317914386  0.7600999097191306  0.8887475383852461
  0.8708632242666710  0.8287030608438570  0.5519887379115644
  0.3614158624099346  0.6162145660369944  0.2113082834247706
  0.2892319037378925  0.6600705568205640  0.8926184724697208
  0.1961052247799557  0.7219200897706912  0.5674437762798306
  0.1232842350489705  0.7302265995698747  0.2044701877769484
  0.0779371536145348  0.7910469990362969  0.8928821191873055
  0.0040765329322170  0.8388753948856760  0.5480547526158119
  0.9278486570257556  0.8730660868150224  0.2219754375159937
  0.4345473967914089  0.6555466612619512  0.8892970172606240
  0.3497489696535894  0.7140005657818449  0.5744438872296698
  0.2829033438523041  0.7261024495354036  0.2101843406748927
  0.2266977223615214  0.7841279900973461  0.8892822559499649
  0.1352678307454838  0.8174757228869609  0.5427508686919893
  0.0722998107805211  0.8838199296969265  0.2313940417669542
  0.0023000486191123  0.8896253032024433  0.9105380813828461
  0.9229435813477664  0.9756957546477523  0.5539356472791255
  0.8446555492019741  0.0033947361417788  0.2189964826635205
  0.8076679097839801  0.0227266628836489  0.9005353175995907
  0.7184579706944660  0.0658159081050016  0.5610732264441012
  0.6381305659848522  0.1276237193755776  0.2312940986004435
  0.5908541795169384  0.1550333368647614  0.8861266834374533
  0.5015942536351261  0.1895877521565481  0.5752167108579158
  0.0578989106248855  0.9613466866539468  0.5470510115682217
  0.1256863778398127  0.0040261749713864  0.2263227834372259
  0.2075729836111577  0.0232285147848899  0.8872840642059927
  0.2926688817602638  0.0683676251791354  0.5425674450515245
  0.3385524379430507  0.1333497658632226  0.2069232956179334
  0.4281006434632744  0.1786395313221334  0.8825676587997933
  0.8750552843034782  0.8991870562570909  0.9015674183329878
  0.7766459471749343  0.9516187709078849  0.5576595601404790
  0.7065714462347259  0.0251687712999527  0.2335307595988567
  0.6595289399660160  0.0242044197347084  0.9076540570282177
  0.5762011937674529  0.0780029406954199  0.5750264400270808
  0.4928124399819040  0.1255136347313268  0.2346010954598867
  0.1391065180831319  0.8993685250520684  0.8977244454206001
  0.2060192750618270  0.9677756750772630  0.5394162154328939
  0.2735283561163868  0.0085781843615536  0.2107767403841549
  0.3790738682068593  0.0314339032788666  0.9009513595884471
  0.4210331659373239  0.0564295564502686  0.5713622476174081
  0.7798147809840685  0.8722888047615598  0.2187792954005658
  0.7421043202655682  0.9013772271220404  0.9052286354754173
  0.6568949142837255  0.9577855151695260  0.5578714376609071
  0.5246154420942517  0.0132316507064658  0.2250936738210427
  0.4996856492506438  0.0381872825461684  0.9015466983364320
  0.2148831447263220  0.8635373327665832  0.2325123455476259
  0.2848171156619159  0.9318507488499179  0.8974607715316267
  0.3480851857026224  0.9451550937380446  0.5613359565801161