Li                                      
   1.00000000000000     
    21.2169999999999987    0.0000000000000006    0.0000000000000000
     0.0000000000000006   21.2169999999999987    0.0000000000000000
    -0.0000000000000006   -0.0000000000000006   21.2169999999999987
   Li
   500
Direct
  0.9991461073667338  0.0160313107413899  0.0113144040156499
  0.9867980327096220  0.1018069449026697  0.1042605688834399
  0.9989538172220378  0.1989305712400409  0.2134015233067856
  0.0174073898289109  0.2995144388933397  0.2855498878258018
  0.0119192204364396  0.4012261497855505  0.4107196361408327
  0.0280564240938901  0.5103362237828151  0.5092397921478025
  0.0249444798981955  0.6084961351746259  0.5975928420606138
  0.9926783612197738  0.7007289555545100  0.6922138761370604
  0.9807632554083980  0.7772755799594648  0.8003671645378674
  0.9954104939435382  0.8891406862421647  0.9085979714379988
  0.0995162167130133  0.0004923325635104  0.1025500584437040
  0.0975694702361309  0.1010316288825024  0.1996945482396200
  0.1157330725361732  0.2045876122920305  0.2924759758684061
  0.1085287651411591  0.3206916962812869  0.3861619182730820
  0.1150760121600598  0.4051904548239591  0.4826118805674682
  0.0884346462742158  0.5131238280624046  0.5834755139746406
  0.0951239308101961  0.6023932714332858  0.7089765334401648
  0.0861127275298088  0.6889966611679341  0.8116409435829723
  0.0988597935617648  0.7875960861573290  0.9064210962907069
  0.0912741678842437  0.9170750388839153  0.9924097553848341
  0.1921762874110371  0.0028844629306661  0.2163241674129210
  0.2159205297638707  0.0928396545223151  0.2863579379742660
  0.1851116873261986  0.1954501800443040  0.3848975849554606
  0.2034751345619057  0.3125583456662113  0.5013884686807728
  0.1987457138143967  0.4228143337889421  0.5983395814676911
  0.2131788325399455  0.5203484102370766  0.7020504783899710
  0.2036917292736931  0.6256100400622131  0.8104097087241371
  0.1935591586935033  0.7075844407786178  0.8984618697271074
  0.2123780506197832  0.8086903921383808  0.9812915332045051
  0.2047139227977581  0.8851806622048386  0.1070641287646694
  0.2872849323655586  0.9928084587830526  0.2998799608804248
  0.2803606018758558  0.0994913281802354  0.3952080360088601
  0.2910448475279281  0.1838771687797518  0.4857848121789132
  0.3133647334684468  0.3005350732902841  0.5936621454494002
  0.3196306023471749  0.3837311839562645  0.6884832879294933
  0.2901685172267534  0.5208368803318066  0.8114409176603701
  0.3174736923221957  0.6082401932412722  0.9064616713013152
  0.2839344426638988  0.7015204435122797  0.0051116020172515
  0.2977335396144625  0.8017551218362655  0.0790242249139865
  0.2975755446104529  0.8981995508318832  0.2238754918225965
  0.4061127124475661  0.0026836857237100  0.4003562002168053
  0.3967141315925886  0.1057951812226037  0.4828794396003175
  0.3962947518499291  0.1904702007823929  0.6056746038553982
  0.4092351274921029  0.3050272752981087  0.7132488287693803
  0.3839928698685000  0.3994865895272639  0.8150957058019515
  0.4211373973700319  0.5059997110807402  0.8813900075411212
  0.4085168185888648  0.6161031602017246  0.0350852566338347
  0.4061372319366541  0.7049835994721221  0.1073833666399580
  0.3870279841636446  0.8088465376820508  0.1904379950040038
  0.4079201084036370  0.8938902573408143  0.3056221388509215
  0.4972847075458375  0.0281264698119443  0.4972987307347907
  0.5246401772163836  0.0808200117830040  0.5990624979968899
  0.4996779379742691  0.1991536093698443  0.7110029891125009
  0.4951807432719022  0.3219361978602038  0.8200845694490297
  0.4850186845454090  0.4101051897063641  0.8910004067493063
  0.5008446255361250  0.4979650935570561  0.0161858203327512
  0.5006320040533510  0.6042237422821302  0.1170764085403206
  0.5124296818588903  0.7365622816609303  0.2150119729462219
  0.4940802677098546  0.8004524683037175  0.3106365796295449
  0.4971252495640286  0.9277487759815273  0.4114616821416774
  0.6041975981524246  0.9824113107413837  0.6279008973936016
  0.6204839487203628  0.0920008709996694  0.6989712452278809
  0.5895905702974034  0.2049264665127026  0.8182432525804799
  0.5924218668991870  0.3295136249234076  0.9209799764339905
  0.5806306560776733  0.4167496026771005  0.9947019644624575
  0.6011124664184351  0.5085164075976820  0.1150292237356823
  0.6324345746335496  0.6026743790356761  0.2050215676108778
  0.6095871541688282  0.7250669915633665  0.2949653061224495
  0.5881946599425021  0.8106518258943325  0.4152605731253232
  0.5952685954659032  0.9212786755903295  0.4944648187773950
  0.7113401955978702  0.0030378757600005  0.7099451114672206
  0.7092729184144773  0.0850976499976426  0.8048099401423414
  0.6782783536786567  0.2115361389451849  0.9044254715558253
  0.6948688273554211  0.2976792727529798  0.9915743408587474
  0.6850338780223382  0.4211103709289716  0.0897634137719763
  0.7144597742376391  0.4934536838384318  0.2130496078616204
  0.7120588777866814  0.6193630649950492  0.3094333694678824
  0.7035451562426331  0.7154508521468657  0.4073337309704499
  0.6913871136352938  0.8009251642550765  0.5003102540415725
  0.7075601338549262  0.8983069840222484  0.6038432855728928
  0.8156380567469483  0.9956523825234456  0.7746749399066815
  0.8115866588113292  0.1007551727388432  0.8999739425932063
  0.7972337748032245  0.1888952604043936  0.9895446128104837
  0.7899530494414861  0.3041412881180179  0.0849211273978412
  0.8089703379365574  0.3978506141301779  0.2015133534429907
  0.7994430899750213  0.5017747838997053  0.3017407206485387
  0.7959291709478222  0.6065258217467147  0.4209890634868287
  0.7843974110383201  0.7110974313050846  0.5082868789178505
  0.7834138657680185  0.7983674478012901  0.5985654922939148
  0.8066949295376347  0.9059561950322887  0.7041289640382686
  0.9012955398972551  0.0197613314794722  0.9010281184898901
  0.8887214167884210  0.1082733854927653  0.0008890149408458
  0.9115006292124264  0.2020789569684709  0.0954044393646569
  0.8986712570108892  0.3030502926898251  0.1857626803977936
  0.8924318282509276  0.3982568991846165  0.3044397530282339
  0.8876874770231424  0.4759880520337489  0.4128092416458529
  0.8942406485365524  0.6062900749399063  0.5136364924353103
  0.8858842899561665  0.6974055450817715  0.5937355823160644
  0.8943866178064752  0.7982466720082968  0.7003083117311562
  0.9072881491256979  0.8866329905264649  0.8031943945892408
  0.0970582019135620  0.1147761064240953  0.0126976400999226
  0.0939939138426737  0.1899575203845956  0.0951191370127731
  0.1161756483008887  0.3015516958099624  0.1779569416034334
  0.1076409709195474  0.4057129763868588  0.3010218405052569
  0.1127243300183807  0.5114624362539502  0.3848078130744241
  0.1029065471084536  0.6075371593533490  0.5017400626855846
  0.1024867723994944  0.7160797794221594  0.5948170745157171
  0.0822959744544463  0.7856622142621461  0.7027103219116739
  0.0797887194231066  0.8931750063628243  0.8069057213555197
  0.1137397638685940  0.0028801296130467  0.9089116859122370
  0.1891947702314170  0.1019274105670007  0.0975507286609769
  0.1936279789791229  0.1900652208135014  0.1928048696799749
  0.1829469345336321  0.2965577065560652  0.3011775873120612
  0.1988502234057563  0.4025202837347379  0.3753863439694598
  0.2141800306358093  0.5119005047839025  0.4899706518357902
  0.1839601725031841  0.6346387594853198  0.6079738205212806
  0.1773626408068978  0.7084376895885356  0.6962492048828750
  0.2001718225950881  0.8010180520337471  0.8025083027760758
  0.1829724951689684  0.9077557284253217  0.8863476980722993
  0.1893739440071656  0.9905833242211415  0.0017228345194908
  0.3014318739689870  0.1023894353584396  0.1976637978979099
  0.2757240024508647  0.2209806424093870  0.3015399523966664
  0.2859653061224492  0.2774512268463951  0.3953008446057424
  0.2893678894282914  0.4090963826177116  0.5020258222180303
  0.3189461893764403  0.4944733525003500  0.6202975722298163
  0.3024689400009422  0.6074063863882770  0.6970402290615993
  0.3031222524390813  0.7157924961116109  0.7828537531224953
  0.3074761841919198  0.8116395531884777  0.8919757020313881
  0.2884692892491856  0.9169969769524471  0.9770846806805835
  0.2762279431587871  0.9976389414149054  0.0840374105669994
  0.3914234887118795  0.0882002959890684  0.2931914422397099
  0.3972196220012236  0.1918227963425565  0.4000123796955251
  0.3842543960032074  0.2931805250506656  0.4986619578639804
  0.4190471947023582  0.3865388787293185  0.5805891186312877
  0.3807552462647905  0.4945142715746798  0.7134741697695262
  0.4167826573031093  0.6165753570250274  0.8048775081302750
  0.3939336202102055  0.6877840580666472  0.9018615690248382
  0.4042064113682429  0.7953987953056512  0.9707701791016632
  0.3895738987604247  0.9030202677098558  0.0717678573785179
  0.3772656926049862  0.9782269260498637  0.1870127510958213
  0.5077573516519749  0.0732547551491720  0.3914316340670183
  0.4938960098034570  0.1860261629825146  0.4807585973511834
  0.5073031635009642  0.2943741782532854  0.5942184630249301
  0.4893246274214107  0.4287102497996855  0.7077409204882912
  0.5160523730970468  0.5022912235471537  0.7957097492576679
  0.5081823664985592  0.5888743507564698  0.8871143545270286
  0.4836310878069483  0.6963726756845929  0.0005454786256323
  0.4891099929301959  0.8084997379459864  0.0956639609746901
  0.4974925649243502  0.8800841056699795  0.1783409888297101
  0.4859022293443971  0.0035204600084811  0.2838168016213416
  0.6138197054248948  0.0810072489041787  0.4972539737003316
  0.5879805646415619  0.1913353862468767  0.6052997124946984
  0.5735151020408153  0.3120000989772365  0.6954706240279052
  0.6119554776829901  0.4133317641513869  0.8065580162134154
  0.5952578078899009  0.5106623537729149  0.9111261936183226
  0.5988005288212292  0.6068253716359493  0.0135389805344772
  0.5861446528726972  0.6860617448272635  0.1148333506150720
  0.6038079605976350  0.8184447820144243  0.1849855922137920
  0.5861306306263856  0.8942248597822484  0.2838098887684382
  0.5893572625724630  0.9916844035443262  0.3803995093557049
  0.6999142805297609  0.0936198543620677  0.5945039100721132
  0.6873518240090490  0.2042689418862267  0.7016531705707720
  0.6861518848093482  0.3036239326954799  0.8219435349012585
  0.6954567394070779  0.4002097973323302  0.9053015907055695
  0.6898146368478137  0.4834497883772428  0.9984362143564098
  0.6990920460008496  0.6023895098270273  0.1067929193571189
  0.6964366244049600  0.6949305632276008  0.1883068600650404
  0.6962533058396545  0.7937910948767524  0.2942121176415142
  0.6871369510298351  0.9137646184663240  0.3887857840410973
  0.6991805212801054  0.0003508596879840  0.5101780383654599
  0.8109328901352697  0.1092486199745508  0.6935317104208920
  0.7834227053777596  0.2173984375736424  0.8198058797190910
  0.8053581840033956  0.2912676745062939  0.9069377569873183
  0.7916230664090094  0.4068134623179560  0.9931302625253338
  0.7941148414007628  0.4973243922326418  0.1010482391478504
  0.8013717156054128  0.6001679879342063  0.1729405731253237
  0.7826961007682485  0.7014509204882842  0.2843398529481078
  0.8053969538577590  0.7998506574916320  0.3997646505160972
  0.7917754333788949  0.9010671207050933  0.5020789263326577
  0.8128185195833524  0.9885989833624009  0.5946984389876064
  0.9016780360088603  0.1128768374416751  0.8002324334260251
  0.9137521619456095  0.1963898689729930  0.8930213126266651
  0.8982679153508997  0.2887129980675880  0.9995275302823217
  0.9008695239666338  0.3995396055050193  0.0821959551303166
  0.8885244157986492  0.5021495258519124  0.1872276570674458
  0.8853976537682016  0.6015435466842618  0.3043808153838938
  0.8873229745015792  0.7073107003817682  0.4088050454823957
  0.8917009831738696  0.7915029598906571  0.5038812112928284
  0.8940151576565967  0.8895514898430505  0.5966372408917380
  0.9082280916246432  0.9990310727247049  0.6971456506574896
  0.0093785059150662  0.1026045176038082  0.9047059791676517
  0.0031705160955866  0.2034871758495527  0.9962561728802370
  0.9908607635386701  0.2974006084743337  0.0990681495970236
  0.9933933383607467  0.4083445421124594  0.1992331979073398
  0.9738718956497152  0.5057953593816293  0.2931502271763193
  0.9890183960974710  0.6093225691662312  0.4038465692605016
  0.9908977913936923  0.6934044652872728  0.4979318494603362
  0.0116510873356290  0.7896693868124629  0.6073285059150706
  0.9942891525663384  0.9096192062968385  0.6987059084696199
  0.9858614573219597  0.0057723320921923  0.8035074911627476
  0.2289174911627470  0.1805251067540183  0.0033343766790779
  0.2101123448178370  0.2910482528161396  0.0869822359428767
  0.2160871734929515  0.3925749432059220  0.2050629292548436
  0.1941551548286782  0.4843959673846427  0.2775737333270456
  0.2198944322948577  0.6105410321911648  0.3829865593627773
  0.2041532219446651  0.7145536437762203  0.4796798208983333
  0.1808162464061809  0.8052990634868280  0.6134387891784883
  0.1925521798557739  0.8909494301739187  0.7003631432341990
  0.1896264292784053  0.0073306768157622  0.7843952259980185
  0.1971028255644072  0.0832299194042534  0.8982306881274482
  0.3103338502144481  0.1787092440024480  0.1050318112834034
  0.3089002205778399  0.2966822076636646  0.1966090304944146
  0.3034445095913654  0.3801884554838111  0.2991291685912216
  0.2979378328698701  0.5107426657868714  0.3774071461563864
  0.3050565640759757  0.6034728637413380  0.5117763486826590
  0.2658764867794687  0.7213202743083400  0.6099066093227137
  0.3045985323090008  0.7929582495169001  0.7009591139180813
  0.2912301121741976  0.9012655988122731  0.7883107658952753
  0.3005831611443668  0.9972500999198743  0.8969247108450773
  0.3012811372955682  0.0929387797520889  0.9894741824951723
  0.3990445873591923  0.1916061709949588  0.2040706310977072
  0.4130535645944278  0.2781121002026694  0.2962258886741793
  0.3818459815242505  0.4068319753028220  0.4045014983268160
  0.3994705886788879  0.4916312032803916  0.4889068949427369
  0.3913630249328364  0.6012688631757541  0.6098709181316835
  0.4018581076495238  0.7224163062638453  0.7028253381722180
  0.3903028722250994  0.7965756742234973  0.8096370665032779
  0.4101962586605055  0.9075106216712996  0.8792207338455000
  0.3904117617947875  0.0003642197294624  0.9963427251732071
  0.3888804482254784  0.0937627770184264  0.0877158269312375
  0.4997233360041449  0.1754108347080177  0.3058517962011607
  0.4976656247348856  0.2942060710750809  0.4052503907244187
  0.5114377494462019  0.3936987882358451  0.4655510797945013
  0.4902572602158628  0.5075047377103274  0.6154829254842795
  0.4898360607060397  0.5975704166470308  0.7032806320403466
  0.5011017005231651  0.6972016967526073  0.8014359282650716
  0.5119598689729941  0.7946589286892589  0.8977648725078922
  0.5078343413300672  0.8946484389876019  0.9955719357119293
  0.5099053876608366  0.9940697021256568  0.1027334858839595
  0.4912741273507066  0.0720666366592795  0.1872730965735059
  0.5906985294810738  0.1868241881510144  0.3916475269830784
  0.5866869802516845  0.2881399679502294  0.4907355521515768
  0.6011182495168939  0.4030847174435621  0.6020573393976534
  0.6019065904699090  0.5164838120375137  0.7123067606164852
  0.6208570801715609  0.6130708794834305  0.8091991445538937
  0.5988416142715778  0.7007001866427842  0.8994780270537746
  0.5845837983692306  0.7825356233209249  0.0108728901352677
  0.5873821068011509  0.8934602003110683  0.0760469251072280
  0.6254660663618807  0.0087280628741127  0.1796169609275609
  0.6003138035537532  0.0953524965829260  0.2831543856341625
  0.6987503775274533  0.1905733308196247  0.4935374855069057
  0.6716209930715920  0.2816575397087249  0.5979192180798449
  0.6915509572512590  0.3889849380213946  0.7149775552622870
  0.7096848965452267  0.4991825998020474  0.7951966748362196
  0.7109372097846034  0.6178046029127557  0.9064136795965467
  0.7131963142762885  0.7176607489277487  0.0038504755620465
  0.6884249535749660  0.8054705632276011  0.1064793542913733
  0.6991699594664667  0.9019683338832039  0.1855061318753854
  0.7013890616015459  0.9923496747890823  0.3026940057501051
  0.6904985780270536  0.0888624994108511  0.3988674727812622
  0.8034421435641264  0.1859052024320107  0.6016654258377727
  0.7858576259603183  0.3021583385964064  0.7076836904369159
  0.8019652311825425  0.4147323330348271  0.8122794914455369
  0.7971674176367998  0.5037327906867120  0.9066768610076821
  0.8013589942027650  0.5986725630390737  0.0180904387990779
  0.7973607164066578  0.7202053160201700  0.0977482259508875
  0.8107863227600518  0.8019245439977354  0.2075530023094672
  0.8000383923269041  0.8924410684828175  0.2958454819248715
  0.8170787684404033  0.9922531658575693  0.3991059273224309
  0.8033465687891805  0.0987310142810003  0.4771632214733472
  0.8989246095112406  0.2042583678182623  0.7094556558420138
  0.8974934161285759  0.2938539586180866  0.8028752561625083
  0.8884762360371425  0.4019572055427219  0.9025019908563863
  0.8904969618701983  0.4977773059339228  0.9975783140877610
  0.9121786171466297  0.5835862850544373  0.1077717080642913
  0.9087972564453040  0.6867604746194118  0.1954308709996724
  0.9034821704293705  0.7823606032898169  0.3042021661874941
  0.9010292326907674  0.8982998505915063  0.4022468779752089
  0.9156188080312972  0.9999626714427094  0.5021742550784722
  0.9102499057359665  0.0983306343969446  0.6000197337041016
  0.0186596912852934  0.1843806659753966  0.8066322298157118
  0.0004440434557225  0.3043732144035474  0.8762824075034175
  0.0024437427534494  0.3762935433850245  0.9841717255031313
  0.0011924706603210  0.4917304383277568  0.0909529589480158
  0.0094476815760913  0.5913740213036718  0.1986597883772419
  0.9993240458123225  0.6845690917660363  0.3232057029740290
  0.9981976320874750  0.7980044143846925  0.4071030230475543
  0.9875284653815370  0.8907026639015854  0.5170956596125720
  0.9988292105387160  0.0043017646227099  0.5885930046660661
  0.0015953164914961  0.0932676292595573  0.7071881283876138
  0.1094987444030764  0.2096614163171040  0.8949684823490571
  0.1024876386859574  0.3152959042277388  0.0071861662817554
  0.0950823580147997  0.4038769920346894  0.0902821035019059
  0.1096546443889324  0.4905684979026219  0.1956173134750401
  0.1101892892491847  0.5924238172220413  0.2869145751048663
  0.0923345421124537  0.6892023335061523  0.3985725144930967
  0.0903709200169658  0.7830104439835992  0.4752938808502591
  0.0838310896922252  0.8943757025027068  0.5967259131828229
  0.0830124772588050  0.0142262742140744  0.6929301121742029
  0.1118633171513395  0.0878366588113337  0.8084595998491793
  0.3074255691191041  0.3059521619456120  0.0207334491209892
  0.3184213220530694  0.4069482386765344  0.1014923910072127
  0.3111389503699868  0.5100979497572666  0.2116186986850153
  0.3141981024650065  0.5962406923693280  0.2879641787246072
  0.3034959296790305  0.6987312650233335  0.4028635061507302
  0.3263343578262692  0.7987200546731401  0.5134371791487951
  0.2982484677381336  0.8971496549936404  0.6056928891926319
  0.3145441909789355  0.0002985134561939  0.6965000452467365
  0.2984256699816186  0.0839216039025317  0.8162711382382071
  0.3155327369562144  0.1921857661309332  0.8947889828910789
  0.4014027336569725  0.2964343941179237  0.0831228331055271
  0.3895084041099111  0.4020455351840511  0.2002853523118233
  0.4161158858462528  0.5066112598388059  0.2752862841118002
  0.3912367917236210  0.5995402794928566  0.3742459424046771
  0.4007187929490499  0.7018711481359290  0.5112538789649790
  0.3952056544280538  0.8103224838572842  0.6056756897770654
  0.3892079719093147  0.8923180755997535  0.7040543780930406
  0.3875098859405171  0.0099414874864507  0.7968185049724283
  0.4177534067021753  0.0943731517179600  0.9149350091907422
  0.3925374317764039  0.2125048847622182  0.0012915275486662
  0.4969222218032741  0.3006859664420034  0.1987150619786036
  0.4943934010463309  0.3816919036621584  0.3039583965687882
  0.4938061794787174  0.4990650186171450  0.3807145421124574
  0.5018083517933718  0.5785418848093542  0.5043313583447215
  0.5132579671961182  0.6874265009190736  0.5962439388226386
  0.4928496399113911  0.7869109468822160  0.6927976476410436
  0.4883094556252061  0.8854626200688145  0.7978343601828755
  0.5117330084366287  0.9979281298015721  0.8947684229627200
  0.5110172842531924  0.0971183183296418  0.0230291313569282
  0.5018208210397290  0.1993024513361945  0.0999893717302172
  0.6027280001885273  0.2833358486119621  0.2885606240279017
  0.6035963345430559  0.3990090375642197  0.3856371584107094
  0.5929928764669867  0.4968193769147362  0.4859169613988783
  0.5973358043078676  0.5786038469152075  0.6210619819013061
  0.5881431017580212  0.7015901743884640  0.6917629099307163
  0.6097609077626416  0.8158120577838517  0.7984597313475064
  0.5912178540792752  0.8795610463307710  0.9068914375265109
  0.6149327006645606  0.9961205669981652  0.0014629688457362
  0.6156276080501470  0.0981339308101994  0.0949975764716982
  0.5838150888438491  0.1886617650940252  0.2092488268840995
  0.7009752255266974  0.2929325606824733  0.3977646217655675
  0.6967849271810351  0.3788314620351585  0.5061637446387337
  0.6925743846915182  0.4842092312768074  0.5977741127397849
  0.7013213602300041  0.5961784036385893  0.6900160602347185
  0.6847418357920532  0.6941131875382922  0.7997451449309523
  0.6876903520761672  0.7857819932129928  0.8939636508460183
  0.7152965381533676  0.8958935433850215  0.9885055120893611
  0.7035019357119268  0.9873199571098681  0.0959286411839528
  0.7135952132723773  0.1067226059292068  0.1892134887118786
  0.7002594080218714  0.1832728382900513  0.2865849182259481
  0.8078927265871698  0.2981960267709880  0.5186671409718642
  0.8187631898948950  0.3860145359852964  0.6144670924258833
  0.8090017547249815  0.4967149323655562  0.6825819955695920
  0.8022561521421494  0.5812602988169857  0.8177188386671048
  0.8030074077390736  0.6939290418061006  0.9066663326577711
  0.7845713060281838  0.8041691398406954  0.0000255493236523
  0.8018257604750900  0.8893872569166206  0.1040813748409306
  0.8142115374463899  0.9815866036668695  0.1849078894282883
  0.8067345359852922  0.0883614379978326  0.2830682240656088
  0.7965939713437322  0.1854035796766738  0.4002591077909230
  0.9273902474430855  0.3040104293726742  0.6086761535561109
  0.9165750860159321  0.4055484875335793  0.7063178290993051
  0.8984066705943334  0.5029814719328840  0.7940410354904088
  0.8821655182165244  0.5952179907621229  0.9350239944384242
  0.8945211731158977  0.6958713163972305  0.0135066239336368
  0.9046160013196953  0.8006082843945919  0.0923524315407462
  0.9162452867983220  0.8928265339114887  0.2105518315501698
  0.8881581632653024  0.9826158679360901  0.2929251138238200
  0.9250019875571454  0.0778833284630238  0.3964579794504388
  0.9111902526276126  0.1973726827543985  0.4923727242305702
  0.0237985120422337  0.3018323061695796  0.7197699811471949
  0.0059453980298798  0.4121156827072596  0.7989548781637339
  0.9917374642975005  0.4834372404204146  0.9095470368101033
  0.9983334189564985  0.6021004354998354  0.9976664924353145
  0.0065100433614589  0.6963825291040209  0.0981230447282826
  0.0069171329594226  0.7966052391949816  0.2077067379931208
  0.9976885209973148  0.8930783937408648  0.3115361026535339
  0.0012358292878361  0.0025209893010327  0.4031053282744992
  0.0120792491869750  0.1177227303577340  0.4832727855021943
  0.9940665225998018  0.2146817985577627  0.6107923009850609
  0.1174878399396704  0.3114221459207229  0.7860075703445375
  0.1053064179667231  0.4018256992034708  0.8674151180657006
  0.0865287660838021  0.5065703431210835  0.9917964146674834
  0.0816170226704998  0.5829885096856273  0.1008007347881446
  0.1085119517368156  0.7016190597162648  0.1941669156808246
  0.0957304317292724  0.7919188264127826  0.3229770179572995
  0.1012426846396792  0.9088914502521561  0.4050920549559294
  0.0925837870575492  0.0056966050808285  0.4902373686195034
  0.1026621119856728  0.1226512900032972  0.5811423763962864
  0.1332412433426029  0.2064768214167856  0.7063177159824647
  0.2208674822076659  0.2870775331102422  0.9230333345901869
  0.1970202219917994  0.4183190639581440  0.0100850973276181
  0.2076530051373879  0.4992774543997740  0.1146513795541324
  0.2053305740679647  0.6104408040722049  0.1949602106801152
  0.2184801267851242  0.7103921595890057  0.2982778220295046
  0.2186527364848914  0.7914412749210555  0.4000787788094442
  0.2021837394542132  0.8824574082103993  0.5021637724466217
  0.1757574190507611  0.9960355714757014  0.5928882603572632
  0.1978243300183848  0.0917520624970507  0.6909560394966334
  0.1958084187208371  0.2035635019088460  0.8038110185228859
  0.3864731144836711  0.4215214068906974  0.0200504948861777
  0.4172160578781146  0.5134427459112985  0.1218332440967131
  0.4096329768581768  0.6243182136965615  0.2181090620728696
  0.4120579346750262  0.7183179596549962  0.3018569486732332
  0.4055529118159953  0.8062516444360668  0.3904630183343514
  0.3962376311448352  0.9060735217042932  0.5102117632087442
  0.4120336956214388  0.0159170057029741  0.6070912188339506
  0.4107408931517185  0.1094638959325067  0.7121910557571738
  0.4079035853325195  0.2066239209124774  0.8030579375029490
  0.3960893010321911  0.3019325342885395  0.9176816628175501
  0.4880683216288801  0.3890260866286468  0.0981048168921177
  0.5053724353113083  0.4913481279162966  0.1928617594381876
  0.5198832813310048  0.6174882740255470  0.3026455813734259
  0.5191659640854027  0.6923269844935689  0.4152491737757487
  0.4854610944054301  0.8048557713154523  0.5180701687326206
  0.4962164778243832  0.9095499820898354  0.5819801578922537
  0.4976409987274337  0.9881260140453421  0.7110609874157490
  0.5166829980675871  0.1047264094829643  0.7927655959843491
  0.4914168242447090  0.2109127949285963  0.9022763373709779
  0.4757077494462010  0.3214710892209069  0.9920794928595029
  0.6020134660885148  0.3916091676485820  0.1900270740444014
  0.5913220172503202  0.5077116458500228  0.2981802573408103
  0.6073953301597754  0.5898004840458100  0.3982207767356343
  0.6172891902719542  0.6769820262054012  0.5105114681623206
  0.5916794933308225  0.8129351161804195  0.5972883536786568
  0.5997767144271080  0.9024029099307143  0.6902408945656759
  0.5920580454352660  0.9732661686383537  0.8066621082151073
  0.5890302036103137  0.0954962176556506  0.9020752311825433
  0.5799539953810608  0.2094956812933049  0.9939077659424029
  0.5856512391007200  0.3098379521138739  0.0840778592638003
  0.6959918202384898  0.3884219159164815  0.3051854112268444
  0.7251096823302063  0.4848723679125229  0.3956123396333098
  0.6981392350473641  0.6053229876985426  0.5032485535184037
  0.6969440231889550  0.7030801819295860  0.6040914554366807
  0.6977290564170247  0.8110677574586447  0.7126856167224389
  0.6974438455012475  0.9023845166611650  0.8009308337653778
  0.6880229485789684  0.0130408427204571  0.8914555205731247
  0.7048308733562720  0.1009583065466373  0.9963578767026462
  0.6871749389640414  0.1942053777631116  0.0961701084036406
  0.6825439949097429  0.3010785257105155  0.1935605434321559
  0.8179704769760079  0.3825666187491166  0.4051739242117165
  0.7984235999434404  0.4856680110288920  0.4954051336192649
  0.7826386388273576  0.5964157830984576  0.5906144667012327
  0.7970310449168139  0.6917087849366084  0.7011488740161198
  0.8046649479191217  0.7892830800772970  0.7914095814676898
  0.7876905123250211  0.9120122463119174  0.8872325088372506
  0.8049063326577723  0.9961436395343384  0.9924604161757102
  0.7926886600367595  0.1199454644860225  0.0954273144176838
  0.7928546472168563  0.2005861271621825  0.1923916906254419
  0.7867158203327520  0.2934465461658107  0.2965138907479883
  0.9100092769948631  0.3888931884809352  0.5145729287835223
  0.9251142381109503  0.4897338982891100  0.6100854404486995
  0.8939377145685086  0.6000946538153400  0.6845211646321374
  0.8881042875995675  0.6818043111655783  0.8068168605363653
  0.8788708912664376  0.8007743870481221  0.9046410199368395
  0.9042188551633146  0.9117626469340649  0.9976626026299655
  0.8903184983739436  0.0054111820709792  0.0854798034594921
  0.8868336121977691  0.0968838379601280  0.2094121836263341
  0.8983036277513321  0.1998384559551312  0.3006739864259771
  0.9021594056652660  0.3026392916057858  0.3997959174247043
  0.0227912848187799  0.4018953829476359  0.6265697534995525
  0.0048120059386321  0.5068967511900837  0.7038755267002870
  0.9584496417966690  0.5994638214639210  0.8088875491351288
  0.9837984616109736  0.6987207993590019  0.9204199608804231
  0.0033935886317593  0.8155093330819625  0.0018806942546092
  0.0034182532874567  0.9012405519159188  0.1129693274261214
  0.9887702450864850  0.9907628943771485  0.2135371829193602
  0.9911951548286737  0.0919080185700167  0.2831321096290722
  0.0203145209030495  0.2209406791723652  0.3949984493566490
  0.0175301192440003  0.3114817999717232  0.5073314116039001
  0.1204857458641655  0.4296324060894534  0.7063566456143633
  0.1189994994579848  0.5162398977235227  0.8161664580289383
  0.0790119319413662  0.5938564980911565  0.8978548112362716
  0.1014570952538065  0.6775453617382254  0.0173885176980733
  0.1101444667012288  0.8000811118442783  0.0891073153603230
  0.1026200400622130  0.8910610911061880  0.2038481670358649
  0.0866986755903270  0.9918620879483413  0.2992852622896720
  0.1077165485224114  0.0999669618702015  0.3896046038553962
  0.0911123066409019  0.2030522335862770  0.4966088429089908
  0.1323076773342109  0.3076995183107911  0.6239239986803042
  0.2280612442852430  0.4080149323655533  0.8070566192204396
  0.2071557581184891  0.5084241815525274  0.9040531121270661
  0.1963890931799952  0.5960342508365954  0.0048223815808086
  0.1857749512183631  0.7034666456143626  0.0914918645425828
  0.2039754347928522  0.8097901413960500  0.2205443215346179
  0.1932960512796313  0.8900316788424405  0.3181505104397431
  0.1924868233020689  0.9986841518593579  0.4206974836216233