Li 
 1.0000000000000000
    21.2169999999999987    0.0000000000000006    0.0000000000000000
     0.0000000000000006   21.2169999999999987    0.0000000000000000
    -0.0000000000000006   -0.0000000000000006   21.2169999999999987
 Li 
 500
Cartesian
 -0.0181170400000000  0.3401363200000000  0.2400577100000000
 -0.2801061400000000  2.1600379500000000  2.2120964900000000
 -0.0221968600000000  4.2207099299999999  4.5277401199999998
  0.3693325900000000  6.3547978499999997  6.0585119699999996
  0.2528901000000000  8.5128152200000002  8.7142385200000003
  0.5952731500000000 10.8278036600000007 10.8045406699999997
  0.5292470300000000 12.9104624999999995 12.6791273300000000
 -0.1553432100000000 14.8673662499999999 14.6867018100000006
 -0.4081460100000000 16.4914559800000013 16.9813901300000012
 -0.0973755500000000 18.8648979399999988 19.2777231600000007
  2.1114355699999998  0.0104458200000000  2.1758045899999998
  2.0701314499999999  2.1435880699999998  4.2369192299999998
  2.4555085999999999  4.3407353700000000  6.2054627800000004
  2.3026548099999999  6.8041157200000004  8.1931974200000006
  2.4415677499999999  8.5969258800000006 10.2395762700000006
  1.8763178899999999 10.8869482600000005 12.3795999800000001
  2.0182444400000001 12.7809780400000008 15.0423551100000008
  1.8270537400000000 14.6184421600000007 17.2205858999999997
  2.0975082399999998 16.7104261600000008 19.2315363999999995
  1.9365640200000001 19.4575810999999987 21.0559577800000000
  4.0774042899999996  0.0611996500000000  4.5897498600000004
  4.5811858799999996  1.9697789500000000  6.0756563699999999
  3.9275146699999999  4.1468664700000000  8.1663720600000005
  4.3171319300000004  6.6315504199999999 10.6379591399999995
  4.2167878099999996  8.9708517200000006 12.6949708999999995
  4.5230152900000000 11.0402322200000000 14.8954050000000002
  4.3217274200000002 13.2735682199999996 17.1944627899999993
  4.1067446700000003 15.0128190799999999 19.0626654900000005
  4.5060250999999996 17.1579840499999996 -0.3969375400000000
  4.3434153000000002 18.7808781099999997  2.2715796199999998
  6.0953244099999999 -0.1525829300000000  6.3625531300000002
  5.9484108899999999  2.1109075100000001  8.3851288999999998
  6.1750985299999996  3.9013218900000002 10.3068963599999996
  6.6486595499999996  6.3764526500000001 12.5957297399999995
  6.7816024900000000  8.1416245299999996 14.6075499200000003
  6.1565054300000002 11.0505960900000009 17.2163419500000003
  6.7358393300000001 12.9050321799999992 19.2323972800000007
  6.0242370699999999 14.8841592499999997  0.1084528600000000
  6.3170125099999996 17.0108384199999989  1.6766569800000000
  6.3136603300000003 19.0570998699999983  4.7499663099999996
  8.6164934199999994  0.0569397600000000  8.4943574999999996
  8.4170837299999999  2.2446563600000000 10.2452530700000004
  8.4081857499999995  4.0412062500000001 12.8505980700000002
  8.6827416999999993  6.4717637000000003 15.1330004000000002
  8.1471767199999992  8.4759069700000005 17.2938855899999986
  8.9352721600000002 10.7357958700000005 18.7004517899999989
  8.6675013399999994 13.0718607500000008  0.7444038900000000
  8.6170136500000005 14.9576370300000008  2.2783528899999999
  8.2115727399999994 17.1612969900000003  4.0405229399999998
  8.6548409399999997 18.9656695900000010  6.4843849200000001
 10.5508896399999994  0.5967593100000000 10.5511871700000004
 11.1312906399999996  1.7147581900000000 12.7103090200000004
 10.6016668099999993  4.2254421300000002 15.0853504199999993
 10.5062498299999998  6.8305203099999998 17.3997343099999995
 10.2906414300000009  8.7012018100000006 18.9043556300000013
 10.6264204200000005 10.5653253899999999  0.3434145500000000
 10.6219092300000000 12.8198151399999993  2.4840101600000000
 10.8722205600000006 15.6276419299999993  4.5619090299999998
 10.4829010399999998 16.9832000200000017  6.5907763099999999
 10.5475064199999995 19.6840457800000017  8.7299825099999993
 12.8192604400000008 -0.3731792200000000 13.3221733400000009
 13.1648079399999993  1.9519824800000001 14.8300729100000002
 12.5093431299999995  4.3479248400000001 17.3606670899999997
 12.5694147500000000  6.9912905800000003 19.5404321600000017
 12.3192406299999995  8.8421763200000001 -0.1124084200000000
 12.7538032000000001 10.7891926199999997  2.4405750400000001
 13.4183643700000008 12.7869422999999998  4.3499426000000003
 12.9336106500000003 15.3837463600000000  6.2582788999999996
 12.4797261000000006 17.1995997900000006  8.8105835799999994
 12.6298137900000000 19.5467696599999989 10.4910600600000006
 15.0925049300000005  0.0644546100000000 15.0629054300000007
 15.0486435099999998  1.8055168399999999 17.0756525000000003
 14.3910318299999993  4.4881622600000002 19.1891952299999993
 14.7430319099999991  6.3158611300000000 -0.1787672100000000
 14.5343637900000004  8.9346987400000000  1.9045103500000000
 15.1586930300000002 10.4696068100000002  4.5202735299999999
 15.1077532100000003 13.1410261500000001  6.5652477999999999
 14.9271175800000009 15.1797207299999997  8.6423997700000008
 14.6691603900000000 16.9932292099999991 10.6150826600000006
 15.0123033600000007 19.0593792800000017 12.8117429900000008
 17.3053926500000017 -0.0922434000000000 16.4362782000000003
 17.2194341400000006  2.1377225000000002 19.0947471399999991
 16.9149090000000015  4.0077907399999999 -0.2218319500000000
 16.7604338499999983  6.4529657100000000  1.8017715599999999
 17.1639236599999983  8.4411964800000003  4.2755088199999998
 16.9617840400000013 10.6461555899999993  6.4020328700000002
 16.8872292199999983 12.8686583599999995  8.9321249599999994
 16.6425598699999995 15.0873542000000000 10.7843227099999996
 16.6216919899999986 16.9389621400000010 12.6997640500000006
 17.1156463199999997 19.2216725900000007 14.9395042300000007
 19.1227874699999987  0.4192761700000000 19.1171135899999989
 18.8560023000000001  2.2972364199999999 21.2358622299999986
 19.3393088499999983  4.2875092300000004  2.0241959899999999
 19.0671080599999989  6.4298180599999997  3.9413267900000002
 18.9347260999999989  8.4498166300000008  6.4592982399999999
 18.8340652000000013 10.0990385000000007  8.7585736799999996
 18.9731038400000003 12.8636565199999993 10.8978254600000000
 18.7958069799999983 14.7968534500000004 12.5972878500000007
 18.9762008699999996 16.9363996400000012 14.8584414500000008
 19.2499326599999989 18.8116921599999998 17.0413754699999984
  2.0592838699999998  2.4352046500000002  0.2694058300000000
  1.9942688700000000  4.0303287100000000  2.0181427300000001
  2.4648987299999998  6.3980223299999999  3.7757124300000000
  2.2838184799999999  8.6080122200000009  6.3867803900000002
  2.3916721100000000 10.8516985100000003  8.1644673700000006
  2.1833682099999998 12.8901159100000005 10.6454189100000001
  2.1744618500000001 15.1930646800000009 12.6202338699999999
  1.7460736900000000 16.6693952000000003 14.9094049000000002
  1.6928772599999999 18.9504941100000011 17.1201186900000017
  2.4132165699999999 21.2781077100000005 19.2843792399999998
  4.0141454400000001  2.1625938699999998  2.0697338099999998
  4.1082048300000000  4.0326137900000001  4.0907409200000000
  3.8815851100000001  6.2920648600000000  6.3900848699999999
  4.2190051899999998  8.5402728600000000  7.9645720600000001
  4.5442577100000001 10.8609930099999996 10.3957073199999996
  3.9030829800000002 13.4651305600000004 12.8993805500000001
  3.7631031500000001 15.0309224599999993 14.7723193800000008
  4.2470455600000001 16.9952000100000014 17.0268186600000000
  3.8821274300000002 19.2598532899999988 18.8056391100000013
  4.0179469699999997 21.0172063899999984 21.2535533799999996
  6.3954800699999996  2.1723966500000000  4.1938328000000000
  5.8500361600000002  4.6885462899999997  6.3977731699999998
  6.0673259000000002  5.8866826799999998  8.3870980199999998
  6.1395185100000003  8.6797979499999993 10.6514818699999996
  6.7670813000000001 10.4912411199999998 13.1608535900000003
  6.4174835000000003 12.8873412999999992 14.7891025400000000
  6.4313448299999996 15.1869693899999998 16.6098080800000005
  6.5237221999999999 17.2205563999999995 18.9250484700000001
  6.1204529100000000 19.4559248599999997 -0.4861943300000000
  5.8607282700000001 21.1669054199999991  1.7830217399999999
  8.3048321600000001  1.8713456799999999  6.2206428300000001
  8.4278087199999998  4.0699042700000003  8.4870626599999994
  8.1527255200000006  6.2204112000000000 10.5801107600000002
  8.8909243300000007  8.2011953900000005 12.3183593299999998
  8.0784840599999992 10.4921092999999992 15.1377814599999994
  8.8428776399999993 13.0818793499999995 17.0770860900000017
  8.3580896199999994 14.5927143600000004 19.1347969099999986
  8.5760474299999991 16.8759762400000000 -0.6201691100000000
  8.2655894100000005 19.1593810200000014  1.5226986300000001
  8.0044462000000003 20.7550406900000013  3.9678495400000000
 10.7730877300000003  1.5542461400000001  8.3050049799999996
 10.4789916400000003  3.9469170999999998 10.2002551599999993
 10.7634512200000003  6.2457369399999996 12.6075331300000002
 10.3820006199999995  9.0959453700000008 15.0161391099999992
 10.9490832000000005 10.6571128900000005 16.8825737499999988
 10.7821052700000006 12.4941470999999993 18.8219052600000012
 10.2612007900000002 14.7749390599999995  0.0115734200000000
 10.3774467200000000 17.1539389399999997  2.0297022600000001
 10.5552997499999996 18.6727444700000014  3.7838607600000000
 10.3093876000000009 21.2916935999999986  6.0217410800000000
 13.0234126900000007  1.7187307999999999 10.5502375599999993
 12.4751836399999991  4.0595628899999996 12.8426439999999999
 12.1682699200000002  6.6197061000000001 14.7558002300000002
 12.9838593699999993  8.7696600399999998 17.1127414299999998
 12.6295849100000002 10.8347231599999994 19.3313644499999988
 12.7047508199999992 12.8750139099999998  0.2872565500000000
 12.4362311000000005 14.5561720399999999  2.4364192000000000
 12.8109935000000004 17.3649429399999988  3.9248393099999999
 12.4359335899999994 18.9727688500000014  6.0215944099999996
 12.5043930400000001 21.0405679899999996  8.0709363900000000
 14.8500812900000003  1.9863324499999999 12.6135894600000000
 14.5835436499999993  4.3339741399999996 14.8869753199999995
 14.5580845399999994  6.4419889799999996 17.4391759800000017
 14.7555056400000009  8.4912512699999994 19.2077838499999984
 14.6357971500000001 10.2573541600000002 -0.0331788400000000
 14.8326359399999994 12.7808982300000000  2.2658253699999999
 14.7762958599999994 14.7443417599999993  3.9953066499999998
 14.7724063900000004 16.8418656599999998  6.2422985000000004
 14.5789846900000004 19.3873439099999985  8.2488679800000000
 14.8345131200000004 21.2244441899999998 10.8244474400000001
 17.2055631300000016  2.3179279699999999 14.7146623000000005
 16.6218795399999983  4.6125426500000000 17.3938213499999996
 17.0872845899999994  6.1798262499999996 19.2424983900000015
 16.7958666000000001  8.6313612299999996 -0.1457552200000000
 16.8487345899999994 10.5517316300000008  2.1439404899999999
 17.0027036900000006 12.7337641999999995  3.6692801400000001
 16.6064631700000014 14.8826841800000000  6.0328386600000004
 17.0881071700000007 16.9704313999999989  8.4818065899999997
 16.7990993700000004 19.1179410999999995 10.6526085800000008
 17.2455705299999984 20.9751046300000006 12.6177167800000003
 19.1309028900000015  2.3949078600000000 16.9785315399999988
 19.3870796200000015  4.1668038500000000 18.9472331899999986
 19.0585503600000017  6.1256236800000003 -0.0100243900000000
 19.1137486900000013  8.4770318099999997  1.7439515800000001
 18.8518225299999997 10.6541064900000002  3.9724092000000000
 18.7854820199999999 12.7629494300000008  6.4580477600000004
 18.8263315499999990 15.0070111300000004  8.6736166499999996
 18.9192197600000007 16.7933182999999993 10.6908476599999993
 18.9683196000000009 18.8736139600000001 12.6588523399999993
 19.2698754200000018 21.1964422699999986 14.7913392699999999
 21.4159837599999996  2.1769600499999999 19.1951467600000001
 21.2842688399999993  4.3173874100000003 21.1375672200000011
 21.0230928199999987  6.3099487099999996  2.1019289300000001
 21.0768264599999995  8.6638461499999995  4.2271307599999997
 20.6626400100000005 10.7314601399999994  6.2197683699999997
 20.9840033099999985 12.9279969500000007  8.5684126599999999
 21.0238784400000007 14.7119625400000000 10.5646200500000003
 21.4642011199999985 16.7544153800000011 12.8856889100000007
 21.0958329499999984 19.2993907000000000 14.8244432600000007
 20.9170225400000014 21.3394715700000006 17.0480184399999999
  4.8569424100000003  3.8302011899999999  0.0707454700000000
  4.4579536199999996  6.1751707800000002  1.8455021000000000
  4.5847215600000002  8.3292625699999991  4.3508201700000004
  4.1193899199999997 10.2774292400000000  5.8892819000000003
  4.6655001699999996 12.9538490799999995  8.1258258300000001
  4.3315189099999998 15.1606846599999994 10.1773667600000000
  3.8363782999999998 17.0860302299999987 13.0153307900000001
  4.0853796000000004 18.9032740600000011 14.8596048100000004
  4.0233039499999999  0.1555349700000000 16.6425135100000006
  4.1819306500000000  1.7658891999999999 19.0577605100000014
  6.5843533000000001  3.7916740299999998  2.2284599400000000
  6.5539359800000003  6.2947063999999999  4.1714538000000001
  6.4381821600000002  8.0664584599999998  6.3466235700000002
  6.3213470000000003 10.8364271399999996  8.0074474200000001
  6.4723851200000002 12.8038837500000007 10.8583587900000005
  5.6411014200000000 15.3042522600000002 12.9403885299999999
  6.4626670600000002 16.8241951800000002 14.8722495200000004
  6.1790292899999999 19.1221522099999994 16.7255895199999998
  6.3774729299999997 -0.0583446300000000 19.0300515899999994
  6.3922818899999996  1.9718820900000000 20.9936737300000011
  8.4665290100000004  4.0653081300000000  4.3297665800000003
  8.7637574800000007  5.9007044300000002  6.2850246800000003
  8.1016261899999993  8.6317540200000007  8.5823082900000003
  8.4755674800000005 10.4309392400000007 10.3731375900000007
  8.3035493000000002 12.7571214699999995 12.9396312699999996
  8.5262234699999997 15.3275067699999994 14.9118452000000001
  8.2810560399999993 16.9009460800000006 17.1780696400000004
  8.7031340200000002 19.2546528600000002 18.6544263100000016
  8.2833663499999997  0.0077276500000000 -0.0775964000000000
  8.2508764699999997  1.9893648399999999  1.8610667000000001
 10.6026300199999994  3.7216916800000002  6.4892575600000004
 10.5589715599999998  6.2421702100000003  8.5981975399999993
 10.8511747300000003  8.3531071899999993  9.8775972599999999
 10.4017882900000007 10.7677280199999998 13.0587012300000005
 10.3928516999999996 12.6786515299999998 14.9215051699999997
 10.6318747800000004 14.7925284000000001 17.0040660899999985
 10.8622525400000001 16.8602784899999989 19.0478772999999997
 10.7747212200000000 18.9817559299999985 -0.0939502400000000
 10.8186626100000005 -0.1258231300000000  2.1796963699999998
 10.4233631599999992  1.5290378300000000  3.9733732900000001
 12.5328506999999991  3.9638488000000001  8.3095855800000002
 12.4477376599999996  6.1134656999999999 10.4119362100000004
 12.7539259000000005  8.5522484500000004 12.7738505700000005
 12.7706521300000002 10.9582370400000002 15.1130125399999997
 13.1727246699999991 13.0075248499999994 17.1687782499999990
 12.7056225299999994 14.8667558599999996 19.0842252999999999
 12.4031144500000003 16.6030583199999988  0.2306901100000000
 12.4624861599999992 18.9565450700000007  1.6134876100000000
 13.2705135300000006  0.1851833100000000  3.8109330600000000
 12.7368579700000009  2.0230939200000000  6.0076866000000004
 14.8253867600000007  4.0433943599999997 10.4713848299999999
 14.2497826100000005  5.9759280199999996 12.6860520500000007
 14.6726366600000002  8.2530934299999998 15.1696787900000007
 15.0573844500000007 10.5911572199999995 16.8716878500000007
 15.0839547799999991 13.1079602600000005 19.2313790400000002
 15.1318862000000003 15.2266081100000008  0.0816955400000000
 14.6063122399999994 17.0896689399999993  2.2591724599999998
 14.8342890300000008 19.1370621400000012  3.9358835999999999
 14.8813717200000006 -0.1623169500000000  6.4222587200000003
 14.6503083299999997  1.8853956500000000  8.4627711699999999
 17.0466319599999991  3.9443506799999999 12.7655353399999996
 16.6735412499999995  6.4108934700000004 15.0149248600000007
 17.0152963100000001  8.7993759100000002 17.2341339699999985
 16.9135011000000013 10.6876986200000008 19.2369629599999996
 17.0024337800000005 12.7020357700000002  0.3838248400000000
 16.9176023200000003 15.2805961900000007  2.0739241100000001
 17.2024534100000004 17.0144330500000009  4.4036520499999998
 16.9744145700000004 18.9349221499999985  6.2769535899999997
 17.3359602300000013 -0.1643645800000000  8.4678304600000001
 17.0446041500000014  2.0947759300000000 10.1239720700000007
 19.0724834399999992  4.3337497899999997 15.0525206499999999
 19.0421178100000006  6.2346994400000000 17.0346043099999989
 18.8508002999999995  8.5283260300000006 19.1483847400000009
 18.8936740400000005 10.5613410999999999 -0.0513809100000000
 19.3536937199999990 12.3819502099999994  2.2865923300000000
 19.2819513899999997 14.5709969899999994  4.1464567900000002
 19.1691812100000014 16.5993449200000001  6.4542573599999997
 19.1171372300000009 19.0592279299999987  8.5344720100000000
 19.4266842500000010 -0.0007920000000000 10.6546311700000000
 19.3127722499999983  2.0862810700000001 12.7306186900000000
  0.3959026700000000  3.9120045900000000 17.1143160200000004
  0.0094212700000000  6.4578864899999999 18.5920838400000008
  0.0518488900000000  7.9838201099999999 -0.3358285000000000
  0.0253006500000000 10.4330447100000008  1.9297489299999999
  0.2004514600000000 12.5471826100000001  4.2149647300000002
 -0.0143417200000000 14.5245024199999992  6.8574554000000001
 -0.0382408400000000 16.9312596599999985  8.6375048400000001
 -0.2646085500000000 18.8980384199999989 10.9712186099999993
 -0.0248406400000000  0.0912705400000000 12.4881777799999991
  0.0338478300000000  1.9788592899999999 15.0044105200000004
  2.3232348599999999  4.4483862700000003 18.9885462899999986
  2.1744802299999999  6.6896332000000003 21.3694688900000003
  2.0173623900000002  8.5690581399999992  1.9155153899999999
  2.3265425899999999 10.4083918200000003  4.1504125399999996
  2.3378861500000001 12.5694561300000007  6.0874665400000003
  1.9590619800000000 14.6228059100000003  8.4565130400000008
  1.9173998100000000 16.6131325899999993 10.0843102699999996
  1.7786442300000000 18.9759692800000010 12.6607336999999998
  1.7612757299999999  0.3018388600000000 14.7018981899999996
  2.3734039999999998  1.8636303900000000 17.1530873300000017
  6.5226483000000002  6.4913870200000003  0.4399015900000000
  6.7559451900000003  8.6342207799999997  2.1533640599999999
  6.6014351099999997 10.8227481999999995  4.4899139300000002
  6.6663411400000001 12.6504387699999992  6.1097359800000000
  6.4392731400000001 14.8249812500000004  8.5475550100000000
  6.9238360700000001 16.9464433999999997 10.8935966299999993
  6.3279377400000003 19.0348242300000017 12.8509860299999996
  6.6736841000000000  0.0063335600000000 14.7776414599999999
  6.3316974400000001  1.7805646700000000 17.3188247400000002
  6.6946580800000000  4.0776054000000004 18.9847378499999984
  8.5165617999999998  6.2894485400000004  1.7636171500000000
  8.2641998099999991  8.5302001199999999  4.2494543199999999
  8.8287307500000001 10.7487711000000008  5.8407490900000001
  8.3008710099999998 12.7204461099999993  7.9403761599999996
  8.5020506299999994 14.8916001500000004 10.8472735500000006
  8.3850783700000004 17.1926121400000014 12.8506211100000005
  8.2578255400000007 18.9323126100000003 14.9379217400000002
  8.2217972499999998  0.2109285400000000 16.9060982200000005
  8.8634740300000008  2.0023151600000002 19.4121760899999991
  8.3284666900000008  4.5087161399999998 21.2444023400000006
 10.5431987800000009  6.3796541500000004  4.2161374699999996
 10.4895447900000001  8.0983571199999993  6.4490853000000001
 10.4770857100000008 10.5886624999999999  8.0776204400000005
 10.6468678000000008 12.2749231699999992 10.7003984299999999
 10.8897942899999993 14.5851280699999997 12.6505076499999998
 10.4567908099999993 16.6958895600000012 14.6990876900000007
 10.3604617200000000 18.7868604099999992 16.9276516199999989
 10.8574392399999997 -0.0439588700000000 18.9843016300000009
 10.8422537200000004  2.0605593600000001  0.4886090800000000
 10.6471323600000005  4.2286001100000004  2.1214745000000002
 12.7880799799999991  6.0115366999999997  6.1223907600000000
 12.8065034299999994  8.4657747499999996  8.1820635900000003
 12.5815298599999998 10.5410167200000000 10.3097001699999993
 12.6736737599999998 12.2762378200000004 13.1770720699999995
 12.4786321900000008 14.8856387300000002 14.6771336600000009
 12.9372971799999998 17.3090844299999986 16.9409201200000012
 12.5438692100000004 18.6616467200000002 19.2415156299999985
 13.0470271100000001 -0.0823099300000000  0.0310398100000000
 13.0617709600000005  2.0821076100000000  2.0155635799999998
 12.3868047400000005  4.0028366699999998  4.4396323600000001
 14.8725913599999995  6.2151501400000004  8.4393719800000007
 14.7836858000000007  8.0376671300000009 10.7392761700000001
 14.6943507199999992 10.2734672600000003 12.6829733499999993
 14.8799352999999996 12.6491171900000001 14.6400707499999996
 14.5281675299999993 14.7269994999999998 16.9681927399999992
 14.5907262000000006 16.6719365500000016 18.9672267800000007
 15.1764466500000008 19.0081733100000001 -0.2438785500000000
 14.9262005700000007 -0.2690324700000000  2.0353179799999999
 15.1403496400000002  2.2643335300000000  4.0145425899999996
 14.8574038599999998  3.8884998099999999  6.0804722099999999
 17.1410599800000014  6.3268250999999998 11.0045607299999997
 17.3716985999999984  8.1900704100000006 13.0371483000000001
 17.1645902300000017 10.5388007199999993 14.4823421999999997
 17.0214687799999993 12.3325997600000008 17.3495406000000010
 17.0374081699999991 14.7230924800000000 19.2367395799999983
 16.6462493999999985 17.0620566400000016  0.0005420800000000
 17.0123371600000013 18.8701294299999986  2.2082945299999999
 17.2751261900000017 -0.3906770300000000  3.9231906900000002
 17.1164866499999988  1.8747646300000000  6.0058585100000004
 16.9013342900000012  3.9337077499999999  8.4922974900000003
 19.6764388799999992  6.4501892800000000 12.9142819499999995
 19.4469735999999997  8.6045222599999995 14.9859453800000004
 19.0614943299999986 10.6717578900000003 16.8471686500000004
 18.7169057999999993 12.6287401100000007 19.8384040900000009
 18.9790557299999989 14.7643017200000006  0.2865700400000000
 19.1932377000000010 16.9865059699999996  1.9594415400000000
 19.4399762500000008 18.9431005699999986  4.4672782099999999
 18.8440517499999984 -0.3688391300000000  6.2149921399999997
 19.6257671699999996  1.6524505800000000  8.4116489500000000
 19.3327235900000005  4.1876562100000001 10.4466720899999999
  0.5049330300000000  6.4039760399999999 15.2713596900000006
  0.1261435100000000  8.7438584400000003 16.9514256500000009
 -0.1753062200000000 10.2570879300000009 19.2978594799999996
 -0.0353598500000000 12.7747649400000007 -0.0495100300000000
  0.1381235900000000 14.7751481200000008  2.0818766399999999
  0.1467608100000000 16.9015733600000004  4.4069138600000004
 -0.0490426500000000 18.9484442800000004  6.6098614900000001
  0.0262205900000000  0.0534878300000000  8.5526857500000002
  0.2562854300000000  2.4977231700000000 10.2535986900000005
 -0.1258905900000000  4.5549037200000004 12.9591802499999993
  2.4927394999999999  6.6074436700000003 16.6767226199999996
  2.2342862700000001  8.5255358599999997 18.4039465600000014
  1.8358808300000000 10.7479029700000002 -0.1740554700000000
  1.7316683700000000 12.3692672100000003  2.1386891900000000
  2.3022980799999999 14.8862515900000005  4.1196394500000002
  2.0311125699999999 16.8021417399999997  6.8526033899999996
  2.1480660399999998 19.2839498999999996  8.5948381299999994
  1.9643502100000001  0.1208648700000000 10.4013662500000006
  2.1781820299999999  2.6022924199999999 12.3300978000000008
  2.8269794600000000  4.3808187199999997 14.9859429800000008
  4.6861453700000002  6.0909240200000001 19.5839982600000013
  4.1801780500000003  8.8754755799999998 21.4309755099999997
  4.4057738100000003 10.5931697499999995  2.4325583200000001
  4.3564987899999998 12.9517225400000004  4.1364707899999997
  4.6354928500000003 15.0723904500000003  6.3285605499999997
  4.6391551099999999 16.7920095300000014  8.4884714500000005
  4.2897324000000001 18.7230988300000014 10.6544087600000008
  3.7290451600000001 -0.0841132800000000 12.5793102200000000
  4.1972388100000000  1.9467035100000001 14.6600142899999994
  4.1544672199999999  4.3190068200000002 17.0544583799999998
  8.1998000700000002  8.9434196900000007  0.4254113500000000
  8.8520731000000001 10.8937147400000001  2.5849359399999998
  8.6911828700000004 13.2461595400000007  4.6276199699999996
  8.7426332000000002 15.2405521499999992  6.4044988800000002
  8.6046161300000001 17.1062411400000016  8.2844538599999993
  8.4069738199999993 19.2241619099999994 10.8251629800000000
  8.7421189199999993  0.3377111100000000 12.8806543900000001
  8.7146895299999994  2.3224954800000002 15.1105576300000006
  8.6544903699999995  4.3839397299999998 17.0384802600000000
  8.4038266999999998  6.4061025799999998 19.4704518399999991
 10.3553455799999998  8.2539664800000008  2.0814898999999998
 10.7224869599999995 10.4249332300000006  4.0919479499999998
 11.0303635799999995 13.1012487100000001  6.4212312999999996
 11.0151442599999996 14.6891016299999997  8.8103417200000003
 10.3000280400000008 17.0766248999999988 10.9918947700000000
 10.5282250099999999 19.2979219700000009 12.3478730100000007
 10.5584490700000000 -0.2519303600000000 15.0865809700000000
 10.9624631699999995  2.2219802299999998 16.8201076500000006
 10.4263907600000003  4.4749367700000002 19.1435970500000003
 10.0930913199999992  6.8206521000000002 21.0489506000000013
 12.7729197100000000  8.3087717100000003  4.0318044300000002
 12.5460792399999992 10.7721179899999999  6.3264905200000001
 12.8871067200000002 12.5137968700000002  8.4490502200000002
 13.0970247499999992 14.3635276500000000 10.8315218200000007
 12.5536638099999998 17.2480443600000015 12.6726670000000006
 12.7254625499999996 19.1462825400000014 14.6448410599999992
 12.5616955499999996 -0.5672117000000000 17.1149499499999997
 12.4974538299999995  2.0261432500000001 19.1393301800000017
 12.3048839200000000  4.4448698699999998 -0.1292589300000000
 12.4257623400000003  6.5738318299999996  1.7838799400000001
 14.7668584500000009  8.2411477899999994  6.4751188700000002
 15.3846521299999992 10.2875370299999993  8.3937070100000000
 14.8124201499999995 12.8431378299999999 10.6774245600000004
 14.7870613399999993 14.9172522200000000 12.8170084099999997
 14.8037173899999992 17.2084246100000016 15.1210507300000003
 14.7976660700000000 19.1458922899999990 16.9933495000000008
 14.5977829000000003  0.2766875600000000 18.9140117799999992
 14.9543966400000006  2.1420323899999998 -0.0772749300000000
 14.5797906800000003  4.1204555000000003  2.0404411900000001
 14.4815359400000006  6.3879830799999997  4.1067740500000003
 17.3548796100000011  8.1169159499999992  8.5965751499999996
 16.9401535199999991 10.3044181899999998 10.5110107199999998
 16.6052439999999990 12.6541536699999995 12.5310671399999993
 16.9106076799999983 14.6759852899999998 14.8762756599999992
 17.0725762000000003 16.7462191099999984 16.7913370899999990
 16.7124296000000001 19.3501638299999996 18.8244121399999997
 17.0776976599999983 -0.0818204000000000 -0.1599673500000000
 16.8184752999999994  2.5448829200000000  2.0246813299999999
 16.8219970500000002  4.2558358600000004  4.0819745000000003
 16.6917495600000017  6.2260553700000001  6.2911352200000001
 19.3076668299999987  8.2511467799999991 10.9176938299999993
 19.6281487900000009 10.3906841199999995 12.9441827899999993
 18.9666764900000011 12.7322082699999992 14.5234855500000002
 18.8429086699999999 14.4658420700000008 17.1182333299999989
 18.6470036999999991 16.9900301700000007 19.1937685199999990
 19.1848114500000015 19.3448680800000012 -0.0495925600000000
 18.8898875799999999  0.1148090500000000  1.8136249900000001
 18.8159487500000004  2.0555843899999999  4.4430982999999999
 19.0593080700000002  4.2399725200000002  6.3793999699999997
 19.1411161099999987  6.4210978499999998  8.4824699799999994
  0.4835626900000000  8.5270143399999991 13.2939304600000003
  0.1020963300000000 10.7548283700000002 14.9341270500000007
 -0.8815739500000001 12.7188239000000003 17.1621671300000003
 -0.3437480400000000 14.8247592000000008 19.5285503100000000
  0.0720017700000000 17.3026615200000009  0.0399026900000000
  0.0725250800000000 19.1216207900000015  2.3968702199999998
 -0.2382617100000000 -0.1959836700000000  4.5306184099999998
 -0.1868124000000000  1.9500124299999999  6.0072139699999996
  0.4310131900000000  4.6876983900000004  8.3806820999999996
  0.3719365400000000  6.6087093499999998 10.7640505599999994
  2.5563460700000000  9.1155107599999994 14.9867689500000001
  2.5248123800000002 10.9530619100000006 17.3166037400000015
  1.6763961599999999 12.5998533199999994 19.0497855300000012
  2.1526151900000001 14.3754799400000000  0.3689321800000000
  2.3369351500000000 16.9753209500000004  1.8905899100000001
  2.1772893899999999 18.9056431700000012  4.3250465599999997
  1.8394858000000001 -0.1726620800000000  6.3499354099999996
  2.2854220100000000  2.1209990300000001  8.2662408799999998
  1.9331298100000001  4.3081592400000002 10.5365498199999994
  2.8071719900000001  6.5284606800000002 13.2377954800000008
  4.8387754200000002  8.6568528199999992 17.1233202899999988
  4.3952237199999997 10.7872358599999991 19.1812948799999994
  4.1667873899999996 12.6460586999999993  0.1023164700000000
  3.9415871400000002 14.9254518199999993  1.9411828900000001
  4.3277467999999999 17.1813174300000000  4.6792888699999997
  4.1011623200000002 18.8838021299999994  6.7501993799999997
  4.0839929300000000 -0.0279183500000000  8.9259385099999999