Li                                      
   1.00000000000000     
   -10.5278949999999991   18.2348490367503473   -0.0000000000000021
   -18.0478199999999980  -10.4199137352859115    0.0000000000000046
    -0.0000000000000002    0.0000000000000000   22.0820499999999988
   Li
   504
Direct
  0.9970423608977868  0.0040587502488378  0.0160148310505619
  0.9336948491657324  0.0401075058340723  0.6734515201260720
  0.8879580809938048  0.0871553566522536  0.3309074700944876
  0.7973934150083650  0.1012960713870399  0.0045327870374336
  0.7412002518728542  0.1574788026647553  0.6736787707663012
  0.6633790986135040  0.1970411060506123  0.3292359758265206
  0.5647058427967266  0.2546371324154109  0.0098408087111466
  0.4773137924173341  0.2918994605098320  0.6472732422940837
  0.4063100069329266  0.3475245957440265  0.3097337099589907
  0.3337505967729939  0.3665123306297744  0.9953684005787480
  0.2737559756624535  0.4267357477303690  0.6426029413030037
  0.2118596076555406  0.4267402941663505  0.3301931632253314
  0.0579131468941085  0.0608894149198775  0.6652086051793233
  0.0087649431660068  0.0995416470613790  0.3515312142667923
  0.9266449701987867  0.1160077350876207  0.0191429015874860
  0.8674935937128723  0.1546634082242733  0.6611335292692502
  0.7898124611432067  0.2034768492478705  0.3477963178237502
  0.7085390351071226  0.2585409947013488  0.9946130861944411
  0.6442826477013313  0.2842105292871082  0.6550286341168530
  0.5763552320522436  0.3330693637377422  0.3426922541159030
  0.4790103886087707  0.3612417203195548  0.0089845037032319
  0.4265964342227093  0.4136499290844498  0.6715584680770093
  0.3485482916443345  0.4543614515846812  0.3300264327813736
  0.2886884804960559  0.5156293264021912  0.9990252050873920
  0.1417884592744585  0.0771281788352667  0.3338201457745100
  0.0711546535699412  0.1419288694398730  0.9978084167910168
  0.9956404244302632  0.1820569954622115  0.6711290206298770
  0.9250629003282356  0.2319862120161247  0.3543344834379027
  0.8451779970737689  0.2356540618477467  0.9968901619188415
  0.8150370262913924  0.2972412145118923  0.6752990985891287
  0.7003352081088892  0.3278679105967655  0.3172707162604951
  0.6198002239989577  0.3750301621338465  0.0107263863635865
  0.5845853140903756  0.4022284682978068  0.6668704368480292
  0.4997370382903625  0.4574310250915659  0.3325102148577699
  0.4472894536765253  0.4945454496491095  0.0010266863810173
  0.3524020587843921  0.5383261910487889  0.6700908742621294
  0.2012369660884019  0.1165036437033820  0.9992906731938405
  0.1467140125589168  0.1926884638006712  0.6359690558621125
  0.0929432051313910  0.2167949334276003  0.3320592811808680
  0.9865725655522368  0.2550813267189866  0.0204330675820401
  0.9235820634151111  0.3007456087484499  0.6832021207270174
  0.8459259270105051  0.3611690078167769  0.3227845630274331
  0.7801689591424150  0.3769534041169180  0.0130895265611670
  0.7163851066931031  0.4084093113279721  0.6584232025559231
  0.6406091789998030  0.4607105272245562  0.3139910551782990
  0.5739414993492957  0.4912548440037625  0.0099249095985172
  0.5060520316037369  0.5492058712209626  0.6492627618359705
  0.4532359176546450  0.5761702005396359  0.3489532457357924
  0.2852705833475113  0.1815965563668485  0.6479181765279947
  0.2308121647634067  0.1960335893558423  0.3274624824235062
  0.1330600344265633  0.2590958763363531  0.9806370712864094
  0.0536025874733994  0.3014537721094115  0.6538191974929859
  0.9838092175347057  0.3393280561177150  0.3426137831406066
  0.9147502349198433  0.3885255380172552  0.0009342868981790
  0.8528908070510823  0.4229832005694334  0.6808336635412005
  0.7713695696433618  0.4643102022626309  0.3235901105196319
  0.7235884508656625  0.5062078276530713  0.9645682380032667
  0.6319866127398512  0.5407566309764391  0.6578748934089020
  0.5748289599753775  0.5960211336560306  0.3527239939226661
  0.4992728577776973  0.6122601176744027  0.9768536476459388
  0.3416804996230880  0.2189829894369879  0.2963087317527098
  0.2585661336262959  0.2332057408942703  0.9808478107784353
  0.2207555679462274  0.3059669539033933  0.6546652027325379
  0.1366210386149476  0.3394030847310603  0.3248498278013159
  0.0496899383420200  0.3927770908940147  0.9889544267855541
  0.9940470446373126  0.4392448633130286  0.6833933873893017
  0.9194539657161513  0.4567790609395885  0.3323384232895066
  0.8668037781118230  0.5203509459001410  0.9948565228318955
  0.7701307823723198  0.5525826702015166  0.6542290031948994
  0.7191237301696418  0.5919983192854161  0.3328090584886851
  0.6317948103537958  0.6071990353987502  0.9938916232867854
  0.5841686909827501  0.6665426488654091  0.6444199034962779
  0.4125911124797099  0.2332493436814218  0.9949357537004033
  0.3349169011337878  0.3086647983600272  0.6711656770997223
  0.2878345619809153  0.3163522289170615  0.3144016493033917
  0.1992823771214418  0.4148417935415480  0.9711568722106847
  0.1257904814827668  0.4339862281954225  0.6624358055524766
  0.0656681675626132  0.4495830724740415  0.3334863275828113
  0.9985298846188400  0.5124977759292122  0.0198684397508373
  0.9237597496186538  0.5243325011435473  0.6690915992853945
  0.8552385014844006  0.5860951952321614  0.3176490679080999
  0.8111743362510921  0.6566586286462197  0.9902734891008791
  0.7279272393113487  0.6483785231064090  0.6829944466206683
  0.6283408308866143  0.7220901636991570  0.3311022608861052
  0.1209969122546539  0.5094282269248467  0.0165761362735779
  0.0830191676345677  0.5509741553359859  0.6504507738185552
  0.0205880889760621  0.5659004633805864  0.3258615794276380
  0.9329748041634929  0.6368427529818632  0.9996820399374187
  0.8597819315414483  0.6376288599861084  0.6801347076018729
  0.7736931696868083  0.7220870086980042  0.3448138488047974
  0.7094505866267227  0.7395398965806095  0.9959266558132072
  0.2193908695582607  0.5512608321299695  0.6800792059614054
  0.1582950092902919  0.5442199486235850  0.3328019291687170
  0.0523487733204036  0.6283650724078598  0.0038544279176946
  0.0210643954974898  0.6515188303054842  0.6844152114500233
  0.9385915874319011  0.7099468999377052  0.3305467979648640
  0.8732541306765995  0.7444522642579798  0.0327981577797374
  0.7988089188883833  0.7487835421053362  0.6586360550764070
  0.3128173386307012  0.5613279634169999  0.3373918137129479
  0.2123090182880958  0.6336761258650583  0.0246103029383562
  0.1413769103258247  0.6646267572851059  0.6807177132557882
  0.0907688433931781  0.6744328105823953  0.3696621699525195
  0.0158629068238980  0.7678943541415677  0.0127821411508435
  0.9339513791111287  0.7965204603998046  0.6828487006414719
  0.8673095849198802  0.8168903539302761  0.3371350988698936
  0.3638299627221713  0.6190941479141046  0.0181134781417498
  0.2952177356619998  0.6428881719128796  0.6645315407763306
  0.2622874891705536  0.6939363360338717  0.3627813155934376
  0.1442665471031006  0.7573949236021846  0.0074607792301862
  0.0566642439629774  0.8049045008928175  0.6848370640406998
  0.9920802929431645  0.8277102616451799  0.3584846520137361
  0.9201034792050606  0.8691998774253307  0.0340571038467914
  0.4393975945200879  0.6450478280279768  0.6671275683190672
  0.3631627991786246  0.6709814300198786  0.3495363125253306
  0.2836311301363068  0.7591056290008211  0.0184188922677038
  0.2232199938498809  0.7827147025428971  0.6764371378563112
  0.1437064691639378  0.8385531322797561  0.3609612658245069
  0.0706552972141736  0.8825093030479820  0.0215582434601842
  0.9923219188215171  0.9283840376537782  0.6884383361146291
  0.9426517428820844  0.9730107353337090  0.3312182129829466
  0.8643862944434133  0.9917977169907886  0.0157755702029476
  0.7897738115171506  0.0250681649416720  0.6942173751984058
  0.7009004772335459  0.0778704807691639  0.3404709055545112
  0.6596071995939141  0.1303667374470265  0.0038157064221878
  0.5837218468788805  0.1724789180550914  0.6585631383861568
  0.5111878654109958  0.2038547706968998  0.3238305977026599
  0.0970065973288285  0.9691928210174297  0.3418710083529390
  0.1155476209570239  0.0009539517273893  0.9919442121542161
  0.2091402178264943  0.0505511228749853  0.6721956969574805
  0.2667980568339132  0.1209057072515378  0.3372339044608665
  0.3404380276946029  0.1196678862280365  0.9811875423703853
  0.4309049818897535  0.1636437140711635  0.6592611048340160
  0.8417346426134884  0.9010517328243850  0.6832837309036037
  0.8088887952269062  0.9686702841215507  0.3467322277596523
  0.7095372548371728  0.9833501460279450  0.9968935673997663
  0.6365337043280022  0.0528623920713827  0.6643836002545029
  0.5681982273200461  0.0818113508217877  0.3324245620311501
  0.5175601063556172  0.1298350822481211  0.0006467329799520
  0.1351492878416636  0.9269017226611425  0.6842981829132739
  0.2134357381018859  0.9781951321553422  0.3304331137734025
  0.2780662804777947  0.9951154813206955  0.9723258148586780
  0.3455549820164947  0.0268170877481850  0.6683517843678430
  0.4350217687271680  0.0924460043443531  0.3225976573732936
  0.7785201263250272  0.8449186441721679  0.0256358272895838
  0.7349065919470448  0.8819081686970307  0.6732165577924150
  0.6801058467394796  0.9417862271809341  0.3262166601379874
  0.5801721203795651  0.9986574735739069  0.0009268817886010
  0.4900348405365804  0.0278856694320453  0.6647287774459372
  0.2212371676448157  0.8680714085655765  0.9952272212045514
  0.2831794719773697  0.9312886294780611  0.6706549939883288
  0.3575713501861699  0.9851880160723994  0.3357158855269304
  0.4113199070853142  0.9914298245880175  0.9896832830285263
  0.7154394123553658  0.8537621140869618  0.3571695902327932
  0.6355834577134445  0.8746843393526760  0.9775512133157918
  0.5685778475439207  0.9143647881977799  0.6484043053067978
  0.5139088828628005  0.9430064967211109  0.3182061298656578
  0.2925877934165726  0.8223537248614292  0.3442626581318322
  0.3628569998036468  0.8839454967997327  0.0030689012116198
  0.4298525847903676  0.9089782345927873  0.6385554602041026
  0.6668158491120550  0.7890380719783607  0.6419631773318173
  0.5824417938419018  0.8084581290605115  0.3092807470320906
  0.4987318141579777  0.8642021162326117  0.9851218283628569
  0.3712414097113381  0.7853103327109352  0.6590497734585341
  0.4264440442223929  0.8447919476729808  0.3207082064391642
  0.5745108379610002  0.7577041577090498  0.9938227270565889
  0.5154643472555662  0.7829735411728365  0.6490873936070258
  0.4360054855861648  0.7449373081250172  0.9721268097844202
  0.4903425118954630  0.7114635263831488  0.3408980737748522
  0.9844080137941447  0.0101056273620159  0.7958065505693526
  0.9436902752511429  0.0209249166733088  0.4593015689213615
  0.8564422878124276  0.0846920060345795  0.1181291899982142
  0.8148952687385815  0.1306398143777727  0.7771237951186620
  0.7321141615933158  0.1713388968159322  0.4450009192987068
  0.6171228903312382  0.1893822139458479  0.1103182326822036
  0.5660175758827037  0.2675087519131054  0.7499604443428041
  0.5125753293418001  0.2924594423647306  0.4391336873161720
  0.4208889336041679  0.3293846525704112  0.1121811077322974
  0.3401888805833622  0.3582271961406320  0.7521375456535964
  0.2872098168468753  0.4055044590020813  0.4263130465694971
  0.2316883887815990  0.4760814502908488  0.1061986215047952
  0.0747286962816105  0.0133855547129968  0.4463587366209225
  0.9841313962262532  0.1122659808401565  0.1189833203891837
  0.9227469084482323  0.1284768922940529  0.7816565314361696
  0.8672514087980332  0.1438167008299231  0.4519913087779415
  0.7607167304144085  0.2116484488128663  0.1095471969314445
  0.7191990944936819  0.2614601391788867  0.7716894151584626
  0.6329728833825143  0.2828511950973365  0.4359203959777318
  0.5669485416384674  0.3284431124217306  0.1299243122807923
  0.4680352225342688  0.3776789008787560  0.7694369263723218
  0.4225524992956835  0.4028334006781691  0.4362527419329254
  0.3597858475399534  0.4514334719990174  0.0979452102499536
  0.2810443674402094  0.4964397771724265  0.7611318935515499
  0.1591889066886480  0.0827754512853645  0.0810406058314328
  0.0690823056284628  0.1406625564741688  0.8062314296000608
  0.0217461850657088  0.1491861325621429  0.4222155565266803
  0.9153233643966487  0.2315727222781163  0.1370926141368187
  0.8663140301311145  0.2534120948542693  0.7933671651862042
  0.7977833074599303  0.3003589545058176  0.4487324863407167
  0.6828252399697377  0.3150480246505580  0.1098050688228653
  0.6258895107458500  0.3550198040132457  0.7854117575134580
  0.5709343092023857  0.4096177383650641  0.4343260322297979
  0.4991295359080965  0.4445968618127196  0.1278218824792106
  0.3910754576694373  0.4996935987049511  0.7648369164094788
  0.3701833837973965  0.5115645066626513  0.4348635792419628
  0.1982774497445021  0.1421600668791072  0.7676175699267063
  0.1377446514964547  0.1704065888419635  0.4227088254940128
  0.0758148973173718  0.2224253085196395  0.1159308678315654
  0.9638430986917115  0.2992249762297590  0.7793628064423359
  0.9219616874853145  0.2652870186056688  0.4454471840250349
  0.8476266072196879  0.3319084293828780  0.1190825018510537
  0.7886317217908569  0.3598774882127955  0.7749792541906189
  0.7008254933780336  0.4245156740477753  0.4556811464515320
  0.6519648019405011  0.4709171030891639  0.0959141574265061
  0.5834408319233120  0.4638728280090731  0.7712609576556559
  0.4912700927471150  0.5392440686419775  0.4595824432061306
  0.4156770400667682  0.5933681612663619  0.1298463000491381
  0.3003340171274118  0.1697360763102935  0.4500244714598480
  0.1895685023716638  0.2179621223906238  0.0914104175110566
  0.1197253385210573  0.2655881290488793  0.7608253930228415
  0.0739727595311308  0.2775154791435170  0.4399184246933601
  0.9753371071125230  0.3461014591632505  0.1131179917625431
  0.9197918203870472  0.4049457276893449  0.7967762200520312
  0.8447585054539175  0.4199180041813477  0.4548576105932227
  0.7555772291236664  0.4508884783533489  0.1179655240342257
  0.7459065113611061  0.4937753162749843  0.7678847665864339
  0.6320045970099031  0.5408506126037622  0.4359156056616129
  0.5666233831293610  0.5779113105000633  0.1137697247311706
  0.5120718395056088  0.5991777511759366  0.7645400694228996
  0.3448798907452044  0.2118649289843901  0.0845378132917887
  0.2685648277666459  0.2676509347156397  0.7790866160524033
  0.2087888237900017  0.2800717824072549  0.4335560579746911
  0.1261160057260895  0.3561809943747392  0.0775418505075365
  0.0508683453158767  0.4000231214457344  0.7721038178067730
  0.9971201916047505  0.4152557694173211  0.4395999832443067
  0.9126031645675212  0.4683576457857725  0.1041552432858381
  0.8511057609287462  0.5151521261319658  0.7886510251539178
  0.7863712757081487  0.5078658224831898  0.4449451382457710
  0.7197972261946788  0.5879118016098985  0.1055257600630384
  0.6274334606676248  0.6078232859483634  0.7524358857080742
  0.6038884794303740  0.6700672572558517  0.4567863423006457
  0.4201971455663767  0.2587949980760840  0.7968539605697842
  0.3527305017197193  0.2748517446759493  0.4166845057410882
  0.2838757998423631  0.3164312430098803  0.0739117056613878
  0.1889249973118083  0.3845712543357607  0.7520591290210845
  0.1340946724398151  0.4043661632537479  0.4490402575847838
  0.0458834682363971  0.4589409421288195  0.1517767888398041
  0.0084271698880158  0.5304685679639860  0.7673295590762663
  0.9218937401115497  0.5412365871860629  0.4491516444351831
  0.8596716158462101  0.5955478292608589  0.1239549738362129
  0.7771404490959952  0.6393018952795657  0.7883385849592770
  0.7188586165219917  0.6705920834433883  0.4015322322882184
  0.6296001759205865  0.7011384774408498  0.1220557964500557
  0.1465128964714921  0.5400416848019418  0.7754466387858017
  0.0891718720244654  0.5429627431109694  0.4513667979195759
  0.9993690156565904  0.5908740128677081  0.1231227961172081
  0.9368929871075267  0.6420793140387957  0.7778104315496037
  0.8742408023027863  0.6583641319915969  0.4431033029089235
  0.7994900405953942  0.7295958286965387  0.1329676465726664
  0.7212391331688579  0.7377935055927693  0.7621265865261577
  0.2403876768512134  0.5336557699941906  0.4290644668407140
  0.1151448653401346  0.5824214701781116  0.1274779624174371
  0.0803470794858256  0.6221549851237782  0.7902025880749264
  0.0022745303671385  0.6561852485851745  0.4520555980989087
  0.9454992997626306  0.6842530837256504  0.1236048546217390
  0.8588395520183738  0.7405086350874228  0.7705565638154042
  0.7797814959524061  0.8065565141756821  0.4520666699876159
  0.2848068196052722  0.6163583838885671  0.1104657389146411
  0.2090975321140291  0.6460595560651896  0.7878104954023755
  0.1567661651137158  0.6471119489295702  0.4425076498785216
  0.0730107916130009  0.7242550048721341  0.1290612905051844
  0.0223203212902590  0.7565638964201682  0.8160912967772447
  0.9450328095201925  0.7703740357459452  0.4436691194884546
  0.8714475518122597  0.8245736729706650  0.1229649362264809
  0.3430391511949864  0.6126643979898958  0.7800199718776142
  0.3214327811411977  0.6334826705157468  0.4627730441693600
  0.1966927275046544  0.7027150136452747  0.1295133264348181
  0.1175114501411443  0.7497983430473241  0.7967946549346649
  0.0721665583397879  0.7614049836095091  0.4662623547179692
  0.0095463854111983  0.8354484667268025  0.1402235942767973
  0.9457433068523287  0.8629827258087630  0.7829739666380604
  0.4577926501446186  0.6443244950085756  0.4486265360326627
  0.3318075918268022  0.7332006847943191  0.1268937435609487
  0.2958609727729353  0.7506746335041399  0.7859395128622566
  0.2355696305782615  0.7422099690756667  0.4582925471140555
  0.1526738547801187  0.8542532980509350  0.1418872052187155
  0.0793029912298309  0.9048950684983765  0.7738490683609527
  0.0204820390179563  0.8869936182781686  0.4520638255959000
  0.9436005269199370  0.9511754771846270  0.1151557459565566
  0.8525585452965387  0.9580230611655765  0.7892969411807300
  0.7933357782779638  0.0435593061403665  0.4412579121956526
  0.7029580114755163  0.0501386663750480  0.0789283508551080
  0.6763784890322455  0.1501584561021687  0.7901200708267595
  0.5732446399860791  0.1557568510165623  0.4508526001888384
  0.4858530310459344  0.2209683509541094  0.1224197300522363
  0.0867668750839954  0.9787465278154173  0.1019666557226344
  0.1412682233343432  0.0205876076944165  0.7862385829214205
  0.2017822174784527  0.0389008473887529  0.4516291440332765
  0.2793152054504233  0.0792800224688932  0.0754841778729798
  0.3316769145236407  0.1315436883773842  0.7594387002112555
  0.4568934362012627  0.2138419358949690  0.4255669369465238
  0.8954232881149622  0.8909139354321383  0.4494737947790171
  0.8028886534910669  0.9496978958874109  0.1342286264182917
  0.7165442327749574  0.9919634961169663  0.7890633455680103
  0.6538841183531687  0.0260858834923141  0.4450990519449078
  0.5873358719371709  0.0660637905581964  0.0951358891044976
  0.4966161897566295  0.1442416269079629  0.7745900616111285
  0.1696024345000140  0.8897012408057847  0.4485448968732513
  0.2435666242496168  0.9823928415950292  0.1180272411302425
  0.2807482692831229  0.9937683282277590  0.7752766686064021
  0.3359358822755709  0.0708001916392362  0.4266218743277932
  0.4228476745251655  0.1147150044495575  0.0932331350576590
  0.8053107754113853  0.8404577513572491  0.8070021691826597
  0.7155069121096957  0.9394081549757729  0.4470354310401419
  0.6221585407132864  0.9431083804036859  0.0804872002372932
  0.5665004626147123  0.0278039576049025  0.7612525413174964
  0.5050337974213335  0.0618560019601802  0.4251923757078728
  0.2010229293454202  0.8851106481147895  0.7841096447114282
  0.2845142879853171  0.8802455925475101  0.4308574969262366
  0.3596485377756338  0.9772349811442353  0.1395483417526933
  0.4506928419833329  0.0108733011714364  0.7574844355483279
  0.7246432256154876  0.8143655254905511  0.1047428101104728
  0.6589364194466469  0.8761903068841406  0.7717724445873486
  0.5996361016514271  0.9299410961326302  0.4278219689748042
  0.4634254602763619  0.9716306924539282  0.1101693642573949
  0.2636849056203943  0.8583772068063382  0.1254059491759136
  0.3684790039962138  0.8773971064773107  0.7403609370506814
  0.4122212399081846  0.9420874969651081  0.4230179815732669
  0.6550689733442923  0.7963978348007430  0.4388682513625355
  0.5402497023703319  0.8361707175528039  0.1018628428972832
  0.5105757100636481  0.8704271748554362  0.7314962709531017
  0.3835484584457518  0.7659174183957518  0.4498439461010193
  0.4101039769989399  0.8309187254235013  0.0882221831759296
  0.6093372042612160  0.7379416574380926  0.7783145532230904
  0.5186792215099700  0.7953407401703529  0.4403504144769173
  0.4623655846975581  0.7332979092594272  0.7681359615615406
  0.4765066550529866  0.6850656494136658  0.0854635706376925
  0.0422371387938227  0.0251448079423540  0.2514970476020082
  0.9241284602163375  0.0518434217723112  0.8920147323278442
  0.8613910361900921  0.0810067230861975  0.5623444616781512
  0.7875847818366708  0.1236576840430388  0.2401323165195279
  0.7157544057347920  0.1696981674593800  0.9008501008737895
  0.6413319479571271  0.1838379877326943  0.5437951028097459
  0.5638987638254918  0.2440198330776511  0.2499002035590010
  0.4808799603339438  0.3011017491309218  0.8932494333632945
  0.4104965273450958  0.3317624218463067  0.5302475454045279
  0.3207816853040129  0.3701850056791471  0.1985739625623495
  0.2803313219301700  0.4096138158241800  0.8749658374109259
  0.2036117019341859  0.4502355476321043  0.5509642338460452
  0.0493973580362876  0.0436026024925198  0.8986100067702054
  0.9995509685825894  0.1078146449606763  0.5681752033891811
  0.9319570443590379  0.1284345069087394  0.2434953471258297
  0.8672385333531309  0.1676881574009670  0.9076540008740110
  0.7980861178992527  0.2086548846231295  0.5490836625222784
  0.6821898592160309  0.2441909090465657  0.2347903197393393
  0.6138075507652800  0.2790379411660808  0.8959605792940408
  0.5733761844458627  0.3098681732560138  0.5427923068736860
  0.4772822014571076  0.3606720705154842  0.2334350904920512
  0.4067510905743035  0.4460566814883009  0.8816667397275140
  0.3709454410005577  0.4581427206398061  0.5570760472872749
  0.2843271681066355  0.4947016979627463  0.2280988852937114
  0.1383902149432643  0.0925640779911276  0.5545124152875331
  0.0942827950404492  0.1509211059013040  0.2121798216198201
  0.9746492564533114  0.1897727673609069  0.8944885325411391
  0.9296154150060616  0.2240921186289953  0.5637304589021426
  0.8256234754890244  0.2513249124003067  0.2426894051956197
  0.7643755399900556  0.2778372808691785  0.8816202829900277
  0.7242343183242070  0.3204387566634779  0.5514743988895958
  0.6263187412666795  0.3729748925583394  0.2346891950702030
  0.5544799414515538  0.3900843845290964  0.8859899248484595
  0.4875082602405882  0.4368647711775964  0.5475943266136980
  0.4080910584592985  0.4794601971928785  0.2239797958070042
  0.3362938579002588  0.5415817552968250  0.8994520001539712
  0.2135975997687680  0.1302966733590196  0.1825436401964495
  0.1332435770758309  0.1684370905251313  0.8933672086604290
  0.0818613673330759  0.2296748798558994  0.5480216334081334
  0.0029042099111081  0.2372219926283563  0.2285512948299626
  0.9109357382666019  0.3015625502571382  0.9032437726569782
  0.8677383038281974  0.3385612350864875  0.5693907970500902
  0.7547644844621288  0.3745432804545672  0.2067599507292144
  0.6645733240920180  0.4220466906340121  0.8940325970641325
  0.6284175523318112  0.4408838005306848  0.5445321951539839
  0.5566389918892725  0.5065102993316586  0.2433580491847422
  0.5025442441180274  0.5206769186013034  0.8608989074836799
  0.4253377660356463  0.5781632119359656  0.5480527455557791
  0.2843090260586933  0.1758089113312167  0.8755626579054052
  0.2269635889914596  0.2018116440808200  0.5315821542836829
  0.1679128558624257  0.2660907391768248  0.2226867102465562
  0.0485308161412092  0.3016478778822602  0.9010614802520607
  0.9921933418443629  0.3315737511435373  0.5427829581039774
  0.8957762859658800  0.3769355289370822  0.2156858978219844
  0.8192583935044055  0.4129060620793510  0.9017395463736406
  0.7796180130658925  0.4647601714962661  0.5726079902001828
  0.7199824369504526  0.5033856200882738  0.2150236440910120
  0.6211430275925878  0.5376776162175361  0.8838751941056202
  0.5545637765450877  0.5877519135125340  0.5573626823596527
  0.4996305504335794  0.6296316234449932  0.2345375202936353
  0.3462567222280128  0.2240205933646990  0.5704857673993118
  0.2906320894256567  0.2548531622598205  0.2024601606281990
  0.1811189033267340  0.3073468697749107  0.8870697584689822
  0.1485420607665517  0.3351259321716498  0.5362122878084250
  0.0603807356010861  0.3597949833037504  0.2069607785509078
  0.9753365853767235  0.4371414303497758  0.8802406628913531
  0.8983152393763874  0.4827789130734672  0.5580525408646366
  0.8627684697657330  0.4891037660501780  0.2074917482751815
  0.7783654047517814  0.5414899820111643  0.8889693366331457
  0.6831505010670540  0.5861700136398014  0.5323321729640114
  0.6459285315955725  0.6257928393488896  0.2436683102338790
  0.5719928506650120  0.6785916679935866  0.8921406753449048
  0.4375130544108856  0.2546097075454483  0.2304964774556737
  0.3262897105039286  0.2893793576306862  0.8859233087507761
  0.3078973124845490  0.3397686326315608  0.5468664172936855
  0.2202746314283033  0.3854815051989178  0.2089678462823912
  0.1192218680967301  0.4359379138850983  0.8837124872917173
  0.0631133857181325  0.4497122384900223  0.5557706440298773
  0.9801154423193239  0.5045439734762240  0.2374569489698644
  0.9137638838783815  0.5647888540408843  0.8699445744394225
  0.8310063119350772  0.5719642789882755  0.5655293534794126
  0.7943955329359937  0.6277873411182497  0.2210623406794241
  0.7107196090022825  0.6531739053239036  0.8839310408227519
  0.6742641238740177  0.7040815573064947  0.5654877069837241
  0.1338550688569882  0.4814891188994466  0.2223767186470482
  0.0543757346102041  0.5656918955018355  0.8927107904383860
  0.9964564917151577  0.5898482688299467  0.5532699192330455
  0.9570338870446875  0.6144198892581869  0.2225704266587556
  0.8638226071636552  0.6688420675269811  0.8839976700532759
  0.8087224285506167  0.6994925862555235  0.5430292115088946
  0.7091709921853919  0.7612001553221575  0.2391775134102119
  0.1959819131951690  0.5442471132791766  0.9100312090589426
  0.1702046931001036  0.6033555616431698  0.5585532362258050
  0.0745349000789375  0.6320121891803794  0.2446925751911593
  0.0155091594641803  0.6835110289011581  0.9000796117208338
  0.9346628133137358  0.7119266377339954  0.5737677756367745
  0.8500403461096937  0.7639919896360610  0.2258283157587258
  0.7967692799406052  0.7645738217446620  0.9083144762374857
  0.2894392015893956  0.5523122026251883  0.5674174929410967
  0.2093293487134318  0.6237732948537058  0.2257043440260276
  0.1405657557490230  0.6711873834556528  0.9115509293747621
  0.0815855416304458  0.7049630085072067  0.5570326183483871
  0.0103923660355605  0.7588187660103003  0.2494384629144477
  0.9169907575298666  0.7886542202191222  0.9041247950258224
  0.8617329628224368  0.8162726528393165  0.5548389275452266
  0.3665420374118824  0.5984677892976364  0.2348667265946744
  0.2847242054430410  0.6445037323697420  0.9088896986466395
  0.2370129094679925  0.7182452853295587  0.5689674328244010
  0.1602703569258068  0.7792273765292776  0.2462289465878413
  0.0640853963272505  0.8342163167869217  0.9057522268086515
  0.9977308245361769  0.8336968016646722  0.5446473647147769
  0.9353238862970130  0.8970233914164183  0.2349053366874898
  0.4397680161131561  0.6414275631074773  0.8872237880993836
  0.3690707296375706  0.6839242684602524  0.5659094114903311
  0.2831939927898119  0.7578002982785819  0.2224940035005787
  0.2027660313351944  0.7485906437750600  0.8862183393299077
  0.1361971512385125  0.8150968096125624  0.5730085594408152
  0.0713074287547357  0.8887827686307901  0.2311385297107833
  0.9843079202446035  0.9236119286427069  0.9100551909809127
  0.9419745257895116  0.9622488610709325  0.5594940854676054
  0.8753621117853356  0.0074675379157014  0.2318652865109883
  0.7754200359687573  0.0599561581634092  0.8969517024008198
  0.7227338516052839  0.0769721322217336  0.5645116114672319
  0.6279672872906943  0.1267094860192941  0.2262489936396292
  0.5429880342903886  0.1727257911888742  0.8871010114550089
  0.4977367489803370  0.2330840848974347  0.5579622263331530
  0.0831126828489914  0.9608255873450346  0.5629935395490904
  0.1929905300502810  0.9917384384172863  0.1984507412128877
  0.2137609810607302  0.0695979523452479  0.9001216413331221
  0.2936273249017560  0.0899008951941838  0.5533662110175470
  0.3457744787521548  0.1370656280934526  0.2123810176138505
  0.4147867991494607  0.1512731549388420  0.8928862288600925
  0.8585589189680647  0.8966269466224048  0.9217842002893732
  0.8041406925538794  0.9576177573560400  0.5636259885291466
  0.7379657806343118  0.0152628138960225  0.2186379552623094
  0.6465143435263485  0.0375777193788878  0.8918406986670178
  0.5673766208668880  0.0865200002027180  0.5649986631675930
  0.4846853481287354  0.1217547530317873  0.2118124689510239
  0.1591703447910646  0.9321084564742890  0.8874651597111693
  0.2178621881935427  0.9586275842859777  0.5755122241820843
  0.3155326504311731  0.0194120241219693  0.2175547478608166
  0.3666276053713347  0.0470644037091006  0.8656132125414047
  0.4413288995975009  0.1047382816634865  0.5439820369938460
  0.8023448572637264  0.8612291555953888  0.2341783376090518
  0.7337500442840295  0.8792698568321455  0.8948003201695514
  0.6739950194190811  0.9759676451246122  0.5828032356597319
  0.5801063586498785  0.9970602525569134  0.2120543563663730
  0.5209909981671998  0.0416951917378654  0.8760860902860017
  0.2290919133815592  0.9165879026148218  0.2408328044724115
  0.2934880669163462  0.8865491432068708  0.8669299181914738
  0.3620470426998494  0.9646334598525215  0.5254639080157872