Li 
 1.0000000000000000
   -10.5278949999999991   18.2348490367503473   -0.0000000000000021
   -18.0478199999999980  -10.4199137352859115    0.0000000000000046
    -0.0000000000000002   -0.0000000000000000   22.0820499999999988
 Li 
 504
Cartesian
 -0.0421138800000000 -0.0962239300000000  0.3536403000000000
 -10.5536943799999996 16.6078678699999998 14.8711901399999995
 -10.9212936299999992 15.2836302600000007  7.3071153000000004
 -10.2230474099999995 13.4848522200000005  0.1000932300000000
 -10.6454275099999993 11.8747591600000000 14.8762083000000001
 -10.5401479100000000 10.0434663900000007  7.2702052799999999
 -10.5408089500000006  7.6440288399999998  0.2173052300000000
 -10.2932584100000000  5.6621777499999997 14.2931200999999994
 -10.5496504400000006  3.7878253300000000  6.8395552700000000
 -10.1284398099999997  2.2668648800000000 -0.1022752100000000
 -10.5837241300000002  0.5453492100000000 14.1899902800000000
 -9.9321677200000007 -0.5833690900000000  7.2913419399999997
 -1.7086247299999999  0.4215750400000000 14.6891696799999991
 -1.8887861300000000 -0.8773879600000000  7.7625298500000000
 -11.8493076700000000 15.6884405499999993  0.4227145100000000
 -11.9242188200000001 14.2070353500000000 14.5991836500000005
 -11.9873762100000008 12.2818997799999998  7.6800556799999997
 -12.1255258999999995 10.2261274800000006 -0.1189541000000000
 -11.9123205399999996  8.7869476199999994 14.4643750499999992
 -12.0789832900000000  7.0391966100000003  7.5673474900000004
 -11.5625966200000008  4.9705745600000002  0.1983962600000000
 -11.9566419300000000  3.4687250000000001 14.8293876699999991
 -11.8697135100000004  1.6213183499999999  7.2876601900000004
 -12.3452672799999998 -0.1086222400000000 -0.0215254700000000
 -2.8847295000000002  1.7818221800000000  7.3714331499999997
 -3.3106154100000000 -0.1813922100000000 -0.0483946500000000
 -3.2398347300000001 -1.9765143900000000 14.8199045900000002
 -13.9258104800000009 14.4511060199999992  7.8244317800000003
 -13.1509873000000006 12.9561981900000003 -0.0686716000000000
 -13.9451801700000004 11.7648493199999997 14.9119884599999999
 -13.2903565700000001  9.3541514499999998  7.0059878199999996
 -13.2936685400000005  7.3941815799999997  0.2368606000000000
 -13.4137997999999996  6.4686390100000004 14.7258663300000006
 -13.5168118699999997  4.3462376300000001  7.3425071900000001
 -13.6344836600000008  3.0031347400000001  0.0226713400000000
 -13.4256660700000001  0.8166858700000000 14.7969801899999993
 -4.2212384399999996  2.4555677800000000 -0.0156633900000000
 -5.0221964300000002  0.6675107000000000 14.0435004899999996
 -4.8911722400000004 -0.5641791900000001  7.3325496499999998
 -4.4622992500000001 -2.9027726600000001  0.4512040200000000
 -15.1511776000000005 13.7076361999999996 15.0865033900000007
 -15.4241325800000002 11.6619816699999994  7.1277448600000000
 -15.0167240700000004 10.2984412400000007  0.2890435800000000
 -14.9129249200000000  8.8075844799999992 14.5393340799999997
 -15.0590868400000009  6.8808477200000002  6.9335661799999997
 -14.9084748400000002  5.3469034999999998  0.2191623500000000
 -15.2396313600000006  3.5051046000000001 14.3370527699999997
 -15.1702362199999996  2.2610447499999999  7.7056030199999999
 -6.2807207099999998  3.3096455699999998 14.3073615699999994
 -5.9679451700000001  2.1661718900000002  7.2310429100000002
 -6.0769578099999997 -0.2734270400000000 -0.4275731600000000
 -6.0049058300000002 -2.1636872100000000 14.4376682100000000
 -16.4815718199999992 14.4038434899999999  7.5656146900000003
 -16.6424334000000016 12.6319298500000006  0.0206309700000000
 -16.6130695300000006 11.1448866500000001 15.0342029999999998
 -16.5006847900000011  9.2277354000000003  7.1455330000000004
 -16.7538109900000016  7.9198842699999998 -0.7824059400000000
 -16.4129670400000016  5.8895430299999996 14.5272262899999998
 -16.8086210700000009  4.2714305100000001  7.7888688699999999
 -16.3062526199999986  2.7244675800000002 -0.5111189100000000
 -7.5493420000000002  3.9487084700000001  6.5431042300000000
 -6.9310123399999997  2.2849307099999998 -0.4229196000000000
 -7.8461279499999996  0.8372951900000000 14.4563497400000003
 -7.5638177300000002 -1.0452868500000001  7.1733501400000002
 -7.6119006899999997 -3.1866148800000000 -0.2439089000000000
 -18.3926351399999994 13.5494042100000005 15.0907269500000005
 -17.9237810800000013 12.0065058499999999  7.3387136799999997
 -18.5168193700000003 10.3840240700000006 -0.1135785200000000
 -18.0807685800000009  8.2853548000000004 14.4467175599999997
 -18.2551382300000000  6.9445412400000004  7.3491062700000001
 -17.6100883199999991  5.1937214200000001 -0.1348854800000000
 -18.1797083899999983  3.7069109899999999 14.2301125299999995
 -8.5533580800000006  5.0930986100000002 -0.1118289400000000
 -9.0966966899999999  2.8908985600000001 14.8207140400000004
 -8.7397601300000005  1.9522568499999999  6.9426329400000002
 -9.5850139599999995 -0.6887316400000000 -0.6369153900000000
 -9.1568143099999997 -2.2283286200000001 14.6279405800000006
 -8.8053419399999999 -3.4871677100000000  7.3640617600000002
 -19.7618853899999998 12.8678590899999996  0.4387358800000000
 -19.1883042500000016 11.3811201499999992 14.7749141500000007
 -19.5816017299999992  9.4880835900000005  7.0143426000000000
 -20.3912149700000001  7.9493153000000003 -0.2147813000000000
 -19.3653604199999982  6.5175950399999998 15.0819175199999993
 -19.6472595900000009  3.9335829800000002  7.3114166799999998
 -10.4679117300000009 -3.1018377500000001  0.3660350700000000
 -10.8178994599999996 -4.2272611800000002 14.3632865100000000
 -20.9579139400000010 12.7136357199999992  7.1956916900000003
 -21.3158841499999987 10.3768081599999995 -0.0070212100000000
 -20.5595047899999983  9.0339560100000007 15.0187686199999995
 -21.1774568099999989  6.5840938099999997  7.6141966500000002
 -20.8161042199999997  5.2307824199999997 -0.0899477900000000
 -12.2587803100000006 -1.7435309299999999 15.0175430300000006
 -11.4884969100000003 -2.7842393200000002  7.3489488400000003
 -11.8917421099999991 -5.5929378700000001  0.0851136700000000
 -22.5081533200000017 11.8301850999999996 15.1132909200000007
 -22.6943875400000010  9.7174904499999997  7.2991509199999998
 -22.6292682599999999  8.1665288700000005  0.7242505600000000
 -21.9236870099999983  6.7639001299999997 14.5440342999999999
 -13.4240541400000009 -0.1448120100000000  7.4503028999999996
 -13.6716397099999991 -2.7314276700000000  0.5434459400000000
 -13.4834653499999995 -4.3473668600000002 15.0316425799999998
 -13.1276468200000007 -5.3723755500000001  8.1628985200000006
 -24.5537171000000001 10.5227138199999999  0.2822558800000000
 -24.2079999500000014  8.7307879199999991 15.0786991500000003
 -23.8740343099999990  7.3033323299999999  7.4446341100000000
 -15.0036633899999998  0.1834768300000000  0.3999827300000000
 -14.7107513300000008 -1.3155884499999999 14.6742187099999999
 -15.2853732299999994 -2.4479839900000000  8.0109551499999991
 -15.1881503099999993 -5.2613110599999997  0.1647493000000000
 -15.1233267599999994 -7.3537715300000004 15.1226062900000002
 -25.3828829700000007  9.4657648499999993  7.9160760100000003
 -25.3739157499999983  7.7209602999999998  0.7520506700000000
 -16.2676388299999992  1.2910060800000001 14.7315443199999994
 -15.9330918900000000 -0.3693498000000000  7.7184783299999999
 -16.6862405100000011 -2.7378443300000002  0.4067269000000000
 -16.4763307200000000 -4.0854367900000002 14.9371186999999992
 -16.6469826099999985 -6.1171855300000004  7.9707647200000000
 -16.6712206000000016 -7.9072821299999996  0.4760502100000000
 -27.2023689699999984  8.4211588000000006 15.2021297600000000
 -27.4848611799999993  7.0504243000000004  7.3139771400000004
 -8.9521348199999995 15.8474206700000000  0.3483569300000000
 -8.7670814900000007 14.1401981100000000 15.3297427899999992
 -8.7843990499999993 11.9694106999999992  7.5182955600000003
 -9.2971107499999999 10.6694275500000000  0.0842586200000000
 -9.2582307799999999  8.8468643100000008 14.5424241500000004
 -9.0608663800000002  7.1972844299999998  7.1508434500000000
 -18.5130928499999996 -8.3300049299999994  7.5492127000000000
 -1.2336899699999999  2.0970533300000000 -0.1778883100000000
 -3.1141438199999998  3.2869019599999998 14.8434589900000002
 -4.9909063700000003  3.6051952500000000  7.4468159399999996
 -5.7438402799999997  4.9609069899999998 -0.4154176300000000
 -7.4899347000000001  6.1523339100000003 14.5578366799999994
 -25.1237134200000014  5.9600228099999999 15.0883055099999996
 -25.9982832299999984  4.6565042700000001  7.6565583899999998
 -7.1694401499999998 13.1117947699999995 -0.0685964000000000
 -7.6554109400000003 11.0562744399999993 14.6709518800000005
 -7.4584478100000000  9.5085416800000004  7.3406158000000001
 -7.7920586500000004  8.0847600499999999  0.0142811900000000
 -18.1513929599999990 -7.1938091300000000 15.1107066900000007
 -19.9013187100000017 -6.3007404300000003  7.2966405400000003
 -2.8392976900000000  5.1213929100000000 -0.6111027400000000
 -4.1219565400000002  6.0217111900000004 14.7585775199999993
 -6.2483123500000000  6.9692768899999997  7.1236176000000002
 -23.4451177500000014  5.3922175899999996  0.5660916200000000
 -23.6535393200000001  4.2115037199999996 14.8660016899999992
 -24.1572712500000009  2.5882961999999998  7.2035326000000000
 -6.0837614899999997 10.5933400399999993  0.0204674500000000
 -5.6623108899999997  8.6451450699999999 14.6785741000000005
 -17.9959582000000005 -5.0110028399999997 -0.1053927400000000
 -19.7890133000000006 -4.5402122599999997 14.8094371099999993
 -21.5449696099999990 -3.7453145499999998  7.4132949699999999
 -4.1756598100000000  7.5896568999999996 -0.2278142600000000
 -22.9406159699999996  4.1498020999999996  7.8870367500000000
 -22.4775014199999994  2.4756330400000000 -0.4957152300000000
 -22.4882189900000000  0.8403290000000000 14.3180962899999997
 -22.4295902699999985 -0.4549954500000000  7.0266436700000003
 -17.9220255699999989 -3.2335606299999999  7.6020252299999997
 -19.7734096100000016 -2.5939932099999998  0.0677676300000000
 -20.9305184400000002 -1.6331777999999999 14.1006136000000009
 -21.2605843400000012  3.9375776999999998 14.1758629799999998
 -20.7227928400000003  2.1966742199999998  6.8295529200000002
 -20.8475604099999998  0.0893878400000000 -0.3285405300000000
 -18.0815301099999992 -1.4133348600000000 14.5531700500000003
 -19.7362111300000009 -1.0265164499999999  7.0818946499999997
 -19.7232980299999987  2.5809064400000001 -0.1364068500000000
 -19.5577200600000012  1.2408977999999999 14.3331802800000006
 -18.0347144200000002  0.1883117200000000 -0.6154971800000000
 -18.0026401400000005  1.5279331100000000  7.5277283099999996
 -0.0182337500000000 -0.3896172800000000 17.5730400399999986
 -10.3127212600000000 16.9900138799999993 10.1423202099999994
 -10.5450405600000003 14.7346124300000003  2.6085346800000000
 -10.9368956799999992 13.4982366099999993 17.1604865000000011
 -10.7999145900000002 11.5646546899999993  9.8265325499999996
 -9.9149411000000001  9.2797964099999994  2.4360527300000001
 -10.7869234100000000  7.5338269300000000 16.5606640300000016
 -10.6745946200000006  6.2993315900000004  9.6969720400000003
 -10.3757494200000000  4.2426864999999996  2.4771888299999998
 -10.0466927699999999  2.4705963999999998 16.6087388900000015
 -10.3421862800000000  1.0119061700000000  9.4138660099999996
 -11.0314233500000007 -0.7359248500000000  2.3450832699999999
 -1.0283159500000001  1.2231901700000001  9.8565159399999995
 -1.8590932200000001 -1.4591634300000000  2.6273956300000001
 -12.0333103900000005 15.4874324399999992 17.2605786099999996
 -11.7259097000000008 14.3156409000000000  9.9808946800000005
 -11.8285389700000003 11.6661961600000001  2.4190266800000000
 -12.2904380799999995 10.3900948199999998 17.0404842499999987
 -11.7687195100000004  8.5948799200000003  9.6260159800000000
 -11.8964568899999996  6.9158721700000001  2.8689951599999999
 -11.7437065000000000  4.5991700599999996 16.9907446799999988
 -11.7188530499999999  3.5076917500000002  9.6333548600000007
 -11.9351776699999998  1.8567427800000000  2.1628310300000000
 -11.9184613299999995 -0.0480580400000000 16.8073525299999993
 -3.1698405400000000  2.0402726200000001  1.7895427100000001
 -3.2659437599999999 -0.2059862900000000 17.8032427400000017
 -2.9214260200000002 -1.1579682300000000  9.3233850300000007
 -13.8158110799999996 14.2778155800000004  3.0272859599999999
 -13.6939990199999997 13.1565733900000001 17.5191734100000005
 -13.8198032400000006 11.4177437800000003  9.9089331999999999
 -12.8746424699999995  9.1684419300000002  2.4247210199999998
 -12.9966325699999992  7.7137250100000001 17.3435017000000009
 -13.4034436699999997  6.1427194399999996  9.5908091599999992
 -13.2787874800000001  4.4688907899999997  2.8225691999999998
 -13.1355814800000008  1.9244377399999999 16.8891670299999994
 -13.1298759300000007  1.4197800899999999  9.6026793000000001
 -4.6531234699999997  2.1342637299999998 16.9505695600000017
 -4.5256286699999997  0.7361309700000001  9.3342774199999994
 -4.8124632099999998 -0.9351793200000000  2.5599912200000001
 -15.5475974499999996 14.4576349600000000 17.2099284600000004
 -14.4941682000000007 14.0475643399999992  9.8363869899999994
 -14.9139475099999999 11.9978860199999993  2.6295857599999999
 -14.7976360899999992 10.6306880100000001 17.1131306400000014
 -15.0397996799999998  8.3560303699999992 10.0623738599999992
 -15.3628440899999994  6.9815641499999996  2.1179812199999999
 -14.5142971200000002  5.8054406399999996 17.0310230300000001
 -14.9042198399999997  3.3393592999999999 10.1485224899999995
 -15.0852059999999994  1.3969630200000001  2.8672724900000000
 -6.2252511500000001  3.7079101900000002  9.9374628800000000
 -5.9294984399999997  1.1856065099999999  2.0185294100000002
 -6.0537425400000000 -0.5842319200000000 16.8005843699999993
 -5.7873268600000003 -1.5428052500000000  9.7143006500000002
 -16.5146234900000017 14.1787775600000003  2.4978771499999999
 -16.9918593099999988 12.5527654399999999 17.5944523299999993
 -16.4721334000000006 11.0285344399999996 10.0441885000000006
 -16.0921918300000009  9.0796176600000003  2.6049205999999998
 -16.7643934600000009  8.4563964299999999 16.9564698100000015
 -16.4148525399999983  5.8888916900000003  9.6259101999999999
 -16.3953907900000004  4.3105058500000002  2.5122687500000001
 -16.2048907600000014  3.0941722100000000 16.8826120400000015
 -7.4545593800000001  4.0812184599999997  1.8667682200000000
 -7.6579382000000003  2.1083394400000000 17.2038296099999997
 -7.2527919299999999  0.8889088700000000  9.5738065500000005
 -7.7560265399999997 -1.4116689099999999  1.7122830200000001
 -7.7550818899999996 -3.2406298200000001 17.0496351100000005
 -17.9920380599999987 13.8554068699999995  9.7072688100000004
 -18.0606247800000013 11.7609346699999993  2.2999612900000002
 -18.2577249299999984 10.1519443500000008 17.4150313700000012
 -17.4447051699999989  9.0474434400000003  9.8253007900000000
 -18.1884759900000006  6.9994034999999997  2.3302251100000002
 -17.5754388500000012  5.1076882299999999 16.6153268499999989
 -18.4509277500000017  4.0297722399999998 10.0867788500000000
 -9.0944769700000005  4.9656099600000001 17.5961689999999997
 -8.6739844999999995  3.5680559800000000  9.2012480900000000
 -8.6995087299999998  1.8792461000000000  1.6321219800000000
 -8.9296553099999993 -0.5621804900000000 16.6070072899999985
 -8.7096623599999994 -1.7682644300000001  9.9157294199999999
 -8.7659398500000005 -3.9454469099999998  3.3515426399999999
 -20.1904165900000017 12.8610804900000009 16.9442096900000010
 -19.4737410000000004 11.1709546300000007  9.9181890700000004
 -19.7988725300000006  9.4704251300000006  2.7371799299999999
 -19.7196585800000008  7.5095681699999997 17.4081320499999990
 -19.6707932499999991  6.1207666900000000  8.8666548299999999
 -19.2823855799999997  4.1748617100000001  2.6952422000000000
 -11.2890475099999996 -2.9555472200000001 17.1234514500000010
 -10.7380859599999994 -4.0315893200000001  9.9671041999999996
 -21.1852398899999983 12.0664868900000002  2.7188037399999998
 -21.4516428800000014 10.3936911199999997 17.1756488400000009
 -21.0859527200000016  9.0815515900000001  9.7846292899999998
 -21.5845613900000011  6.9762545999999999  2.9361982200000001
 -20.9086942499999999  5.4639420300000001 16.8293173899999999
 -12.1620995000000001 -1.1772140900000001  9.4746230100000002
 -11.7236709099999992 -3.9691322400000000  2.8149747399999998
 -12.0744267999999995 -5.0176844100000002 17.4492930599999987
 -22.3945542700000004 11.4389310700000006  9.9823143200000004
 -22.3033938399999982 10.1111788899999997  2.7294485800000001
 -22.4063391799999998  7.9447734800000003 17.0154685699999995
 -22.7660444999999996  5.8149485600000004  9.9825588100000004
 -14.1223414599999995 -1.2289918300000000  2.4393099700000000
 -13.8613234399999996 -2.9190229099999998 17.3964707499999989
 -13.3293777000000002 -3.8842433299999999  9.7714760500000004
 -13.8398739099999997 -6.2153339100000000  2.8499378700000002
 -24.4172100199999988 10.7585261899999995 18.0209688200000002
 -23.8527781200000000  9.2052996199999999  9.7971236800000003
 -24.0562655499999991  7.2987280099999996  2.7153178699999998
 -14.6687369400000005 -0.1286430400000000 17.2244400199999994
 -14.8169917800000004 -0.7395565400000000 10.2189774999999994
 -14.7532344599999998 -3.7355676299999998  2.8599197500000000
 -14.7693737400000007 -5.6700305000000002 17.5948594100000015
 -14.5014620399999998 -6.6178279499999997 10.2960286300000003
 -25.7064218900000014  9.7036249800000007  3.0964244200000000
 -25.5316431299999991  8.2532808699999993 17.2896702799999993
 -16.4482454599999990  1.6339742100000001  9.9065936000000008
 -16.7259094700000013 -1.5894265400000001  2.8020739899999998
 -16.6628339200000006 -2.4269847499999999 17.3551556200000014
 -15.8753242599999993 -3.4381872000000002 10.1200389400000006
 -17.0247440700000006 -6.1172609800000002  3.1331603600000002
 -17.1662768800000016 -7.9828504799999997 17.0881738200000015
 -26.7518289200000012  9.3659389399999995  9.9824959999999994
 -27.1007710700000004  7.2952467399999996  2.5428749399999999
 -8.2180546099999994 15.9836724500000003 17.4292945199999991
 -9.1383062899999992 14.0124739399999996  9.7438792799999998
 -8.3055617599999998 12.2958926399999999  1.7428997900000001
 -9.8308745000000002 10.7690214799999993 17.4474709099999998
 -8.8461309900000007  8.8300565199999994  9.9557496600000004
 -9.1030067199999998  6.5569855199999996  2.7032786000000000
 -18.5777137100000012 -8.6162735200000000  2.2516327899999999
 -1.8588184600000000  2.3614836299999999 17.3617597000000004
 -2.8264174899999999  3.2741248000000001  9.9728973399999994
 -4.3714327300000004  4.2671796100000003  1.6668453900000000
 -5.8659365399999999  4.6774045800000001 16.7699633500000012
 -8.6695068899999992  6.1031683100000000  9.3973903799999992
 -25.5059767000000015  7.0446621299999999  9.9253028099999998
 -25.5927041200000005  4.7447832400000003  2.9640432400000001
 -7.3986610700000002 13.1498155899999993 17.4241362500000001
 -7.3548166699999999 11.6516655300000007  9.8286995200000007
 -7.3757177900000004 10.0216019599999999  2.1007954600000001
 -7.8315700200000000  7.5527359399999998 17.1045364699999993
 -17.8427244700000003 -6.1779353900000000  9.9047908400000004
 -20.2942930200000013 -5.7950480400000002  2.6062834399999999
 -2.8432202100000001  5.1843357900000004 17.1196981599999987
 -4.8144868100000000  5.3880082099999997  9.4206855600000008
 -6.5220516699999997  6.5152430600000004  2.0587787500000001
 -23.6466574999999999  5.9272231499999997 17.8202622499999990
 -24.4870509299999988  3.2586085900000001  9.8714587399999996
 -23.5710700799999984  1.5178590999999999  1.7773223800000000
 -24.5136782099999984 -0.3795781600000000 16.8100166800000004
 -6.4333087799999999  8.5646808500000002  9.3891193000000008
 -18.0906659500000018 -5.5571538299999999 17.3147483800000010
 -18.8818505600000002 -3.9840080499999999  9.5142167900000008
 -21.4233030800000002 -3.6245674100000000  3.0815134600000000
 -22.9889063000000000 -2.3148966600000001 16.7268091800000001
 -22.3264902099999993  4.7281412999999999  2.3129359699999998
 -22.7505383799999983  2.8857787199999998 17.0423177099999990
 -23.0963154300000006  1.2443677900000001  9.4471861100000005
 -22.4147104299999995 -1.6738146899999999  2.4327654100000000
 -18.2678843200000003 -4.1359620000000001  2.7692204399999998
 -19.7144133100000012 -2.4232431499999998 16.3486872299999995
 -21.3424474999999987 -2.2996783700000001  9.3411042200000001
 -21.2697421400000017  3.6466870999999998  9.6911106700000005
 -20.7787507399999996  1.1385450200000000  2.2493403900000000
 -21.0846004399999991  0.2404949200000000 16.1529372299999991
 -17.8610976000000008 -0.9868451900000000  9.9334765100000002
 -19.3138031999999988 -1.1799173300000001  1.9481266600000000
 -19.7332763100000008  3.4218835200000002 17.1867808800000006
 -19.8147668999999986  1.1706554000000000  9.7238398700000008
 -18.1021649999999994  0.7902656800000000 16.9620167100000003
 -17.3805535599999992  1.5507019500000001  1.8872108400000001
 -0.8984771300000000  0.5081811200000000  5.5535703800000000
 -10.6647881400000006 16.3111389799999991 19.6975139199999987
 -10.5306291400000003 14.8632524400000001 12.4177185199999993
 -10.5233615100000009 13.0729872000000000  5.3026138200000004
 -10.5980692100000002 11.2834332699999997 19.8926169699999988
 -10.0697503200000007  9.7790152799999994 12.0081106500000008
 -10.3406929999999999  7.7399432199999998  5.5183087899999999
 -10.4968839000000003  5.6313192299999999 19.7247786500000011
 -10.3092528100000003  4.0284063899999998 11.7089528099999995
 -10.0581882500000006  1.9921097800000001  4.3849201700000000
 -10.3439351399999993  0.8436587100000000 19.3210393700000012
 -10.2693727399999997 -0.9785869200000000 12.1664197600000001
 -1.3069821200000000  0.4464180100000000 19.8431511000000000
 -1.9410919499999999 -1.1316073200000001 12.5464732500000000
 -12.1295087699999993 15.6558195300000005  5.3768764300000003
 -12.1566019000000001 14.0666676000000006 20.0428610300000010
 -12.1679326499999991 12.3788139800000003 12.1248928899999999
 -11.5891367800000005  9.8951808900000007  5.1846515799999997
 -11.4981279799999996  8.2851367499999995 19.7846463099999994
 -11.6288892799999992  7.2266285300000002 11.9859668599999996
 -11.5341215100000003  4.9449970299999997  5.1547253399999997
 -12.3325834699999994  2.7691725900000002 19.4690090299999987
 -12.1737520099999994  1.9903264899999999 12.3013811299999993
 -11.9216537700000007  0.0299139700000000  5.0368909899999998
 -3.1275374700000000  1.5590149700000000 12.2447708800000008
 -3.7163963199999999  0.1466476300000000  4.6853654300000001
 -13.6859897799999999 15.7951661899999998 19.7521404999999994
 -13.8312676999999997 14.6163762100000003 12.4483241800000002
 -13.2279440400000006 12.4363355299999991  5.3590795800000004
 -13.0616226599999994 11.0432320799999992 19.4679831700000001
 -13.4078838600000001  9.8673592600000006 12.1776852499999997
 -13.3252016700000002  7.5344614900000000  5.1824185399999996
 -12.8776793600000001  6.0462123900000000 19.5644738199999999
 -13.0168925299999998  4.3375462999999996 12.0920053000000003
 -12.9495511499999996  2.4455449499999999  4.9459330499999998
 -13.3148364600000004  0.4890325600000000 19.8617440400000014
 -4.6003040100000003  2.5372398899999999  4.0309377900000003
 -4.4426966800000001  0.6745765600000000 19.7273793700000013
 -5.0069587699999998 -0.9004627600000000 12.1014411099999997
 -4.3119150399999997 -2.4188748699999998  5.0468811200000001
 -15.0327824299999993 13.4685199099999995 19.9454741499999990
 -15.2457499799999994 12.2952981099999992 12.5733160500000007
 -14.7057709499999998  9.8603077599999995  4.5656835700000000
 -14.6135808800000007  7.7207041299999997 19.7420725099999999
 -14.5729054799999993  6.8651280300000002 12.0243871599999999
 -15.0016435700000006  4.8724343599999997  5.3738446099999999
 -14.6878163399999995  3.7384098500000000 19.0104127200000015
 -14.9124969200000006  1.7315591600000000 12.1021281300000005
 -6.1661431599999998  3.3524184799999999 19.3342183900000002
 -6.0317090599999998  2.0357868600000000 11.7384237099999993
 -6.5701266800000004  0.2892230300000000  4.9173790700000000
 -5.9550139399999997 -2.2581927600000000 19.8972846600000004
 -16.4298907000000014 14.6375259199999999 11.9857604200000001
 -16.2335032599999991 12.4067096499999998  4.7627867799999999
 -16.0771206299999996 10.6366075799999997 19.9122577499999984
 -16.5956444999999988  9.3734558799999999 12.6443582699999997
 -16.6649125600000012  7.8835363100000002  4.7481628599999999
 -16.2432374099999990  5.7238949600000000 19.5177762299999991
 -16.4460299499999998  3.9880625099999998 12.3077106199999999
 -16.6235361799999986  2.5499804600000000  5.1790692500000004
 -7.6884377600000002  3.9796638000000000 12.5974952400000006
 -7.6592881200000003  2.6440843100000002  4.4707353899999998
 -7.4537417799999997  0.1001479900000000 19.5883187599999999
 -7.6121277200000002 -0.7833412500000000 11.8406665499999999
 -7.1291971399999996 -2.6479990899999999  4.5701182600000001
 -18.1576910100000006 13.2301394000000005 19.4375183299999996
 -18.1704754400000006 11.3501281499999997 12.3229441099999999
 -17.9103925900000007 10.6360337499999993  4.5818431600000000
 -17.9672629800000010  8.5510967499999992 19.6302653400000011
 -17.7712276399999993  6.3493052800000003 11.7549856599999991
 -18.0944642800000004  5.2577018600000001  5.3806958099999997
 -18.2689809499999996  3.3593366400000000 19.7002950000000006
 -9.2012416699999999  5.3249733099999998  5.0898347399999997
 -8.6578103700000000  2.9345356699999998 19.5630027999999996
 -9.3735937000000007  2.0741011700000000 12.0759315699999998
 -9.2761290100000000 -0.0000093800000000  4.6144384299999999
 -9.1228843099999999 -2.3684426900000002 19.5141833300000016
 -8.7807766300000001 -3.5350996700000001 12.2725551500000005
 -19.4244712799999988 12.6149524500000005  5.2435362200000002
 -19.8132178000000003 10.7772953400000002 19.2101595900000000
 -19.0714555499999996  9.1934562000000000 12.4880474600000007
 -19.6935056899999985  7.9441926799999996  4.8815096599999999
 -19.2707464900000005  6.1538490299999999 19.5190094400000014
 -19.8057191099999983  4.9586354200000002 12.4871278199999995
 -10.0990410599999993 -2.5762481099999999  4.9105338200000004
 -10.7819675299999993 -4.9029274400000000 19.7128843099999997
 -21.1360646999999986 12.0240656200000000 12.2173340199999991
 -21.1644918400000002 11.0491662099999992  4.9148112900000003
 -21.1653749500000004  8.7823981900000003 19.5204807500000008
 -21.1384611000000007  7.4582789900000002 11.9911981999999995
 -21.2040811299999987  4.9999860299999996  5.2815298100000003
 -11.8857509399999994 -2.0973073699999998 20.0953546600000017
 -12.6811497099999997 -3.1832560200000000 12.3340004899999993
 -12.1911378300000006 -5.2263798399999999  5.4033136800000001
 -23.0270578199999996 11.3955302599999992 19.8756029900000009
 -22.6887557700000002  9.6252211499999998 12.6699687099999991
 -22.7375254200000008  7.5396267600000000  4.9867521600000000
 -22.1871940300000006  6.5621742699999999 20.0574456800000007
 -13.0152167399999996 -0.4771653600000000 12.5297414499999995
 -13.4615455500000003 -2.6825748500000000  4.9840146100000000
 -13.5933305999999998 -4.4305193000000003 20.1289131999999995
 -13.5819694999999996 -5.8579537000000004 12.3004221299999994
 -24.3323292400000000 10.5175261800000008  5.5081126100000004
 -23.8874718199999982  8.5034790900000008 19.9649289299999992
 -23.8041760599999996  7.2080798599999998 12.2519809399999993
 -14.6599550199999999  0.4478559800000000  5.1863387999999997
 -14.6294338899999996 -1.5237703899999999 20.0701477699999984
 -15.4580086500000000 -3.1621592900000000 12.5639672999999998
 -15.7506649200000002 -5.1969762800000003  5.4372399099999997
 -15.7304702499999998 -7.5238745299999996 20.0008659599999987
 -25.5504151700000008  9.5064222100000002 12.0269303399999998
 -26.0363083700000004  7.7085835100000004  5.1871913899999997
 -16.2062007000000001  1.3354835100000000 19.5917200499999993
 -16.2288799799999985 -0.3964828400000000 12.4964399200000003
 -16.6580800000000018 -2.7322140300000002  4.9131237099999998
 -15.6451286799999991 -4.1028419600000001 19.5695176800000006
 -16.1445898099999994 -6.0097039499999996 12.6532036600000009
 -16.7913085500000001 -7.9607595800000004  5.1040125700000001
 -27.0318722700000009  8.3247497100000007 20.0958842299999993
 -27.2835031400000005  7.1502131499999999 12.3547763699999997
 -9.3504931800000008 15.8842848599999993  5.1200608499999998
 -9.2456186700000007 13.5149293000000004 19.8065323400000004
 -8.9980452900000003 12.3768996999999992 12.4655736299999997
 -8.8980036600000005 10.1305867700000007  4.9960415899999999
 -8.8338450000000002  8.1015169900000004 19.5890088899999988
 -9.4467798399999996  6.6474384200000003 12.3209497799999994
 -18.2158088499999984 -8.4961725099999992 12.4320514899999992
 -1.8826808600000000  3.6052379399999999  4.3821991899999997
 -3.5065444800000001  3.1726945600000001 19.8765310900000003
 -4.7137928200000001  4.4174903700000003 12.2194603399999995
 -6.1140131899999997  4.8769334000000004  4.6898082499999996
 -7.0969825400000000  5.9873214399999997 19.7167583499999992
 -25.2209798899999988  6.3129168399999998 20.3548848000000007
 -25.7488216899999998  4.6850897099999997 12.4460172599999996
 -8.0446867700000002 13.2976574000000003  4.8279742600000004
 -7.4846310400000000 11.3975348600000004 19.6936709000000008
 -7.5347788800000002  9.4444960899999995 12.4763287300000005
 -7.3001243200000001  7.5694901300000001  4.6772535299999998
 -18.4982543200000009 -6.8100424999999998 19.5970500299999983
 -19.5947683300000008 -6.0161326199999996 12.7084897100000003
 -3.6722393300000000  5.5514186299999997  4.8040548200000002
 -4.7092268199999996  6.1949920100000000 19.1145142399999983
 -6.5365619700000002  6.9562020000000002 12.0122385400000002
 -23.9903111899999999  5.6567038399999996  5.1711377599999997
 -23.5937475300000017  4.2179052300000004 19.7590254099999996
 -24.7098371800000010  2.1206987599999998 12.8694901900000005