bcc
1.0
-1.806 1.806 1.806
1.806 -1.806 1.806
1.806 1.806 -1.806
Li
1
Direct
0.0 0.0 0.0
