Li                                      
   1.00000000000000     
    21.0004999999999988    0.0000000000000000    0.0000000000000000
     0.0000000000000000   21.0004999999999988    0.0000000000000000
     0.0000000000000000    0.0000000000000000   21.0004999999999988
   Li
   500
Direct
  0.0079871193543042  0.0036508564081785  0.9998641332349223
  0.0021725325587454  0.1063334982500450  0.0968198090521639
  0.0080729539772832  0.2176256627223196  0.1939098188138360
  0.0068570076902930  0.3031849584533717  0.2961978867169819
  0.0087887959810473  0.3972789047879814  0.4073818237661015
  0.0038854722506585  0.4935046108425993  0.5102585538439541
  0.0082726244613198  0.5917382357562886  0.6033174110140251
  0.9973604195138179  0.6959641865669894  0.7115934382514695
  0.0051540563319890  0.8075853165400844  0.7954450932120665
  0.0050170667365066  0.9037542515654380  0.8979237922906620
  0.0973411356872447  0.0037574614890090  0.0981966634127787
  0.1033645037022950  0.1022325573200646  0.2003990747839310
  0.0906068498369095  0.2036385186067022  0.3039330354039222
  0.1114092931120680  0.3078471184019449  0.3935453127306516
  0.1152695597723863  0.3907063731815938  0.4984926101759513
  0.0964041284731323  0.4949091731149267  0.5993230065950783
  0.0960269155496292  0.5918969567391272  0.6992075698197695
  0.1111709087878836  0.7118881783767037  0.8043109640246655
  0.0990080602842767  0.8025785671769725  0.9011340234756346
  0.0865155577248160  0.9133146348896446  0.9958941372824484
  0.2075880650460675  0.0114793928715997  0.1922018780505255
  0.1963760924739901  0.1084213380633798  0.3210109759291413
  0.1995742348991669  0.2190515492488245  0.3948378295754864
  0.2165563596104860  0.3073296797695306  0.5019058660508051
  0.2009805728435055  0.3997099145258431  0.6118001333301564
  0.1850071007833165  0.5086409556915328  0.7130515325825542
  0.2027127858860496  0.5945537758624795  0.8202760839027619
  0.1973799047641691  0.7113696835789654  0.9067464850836870
  0.1973097854812949  0.8016026675555352  0.0075835218209122
  0.1929699183352795  0.8913759039070470  0.0943588962167539
  0.3030923663722263  0.9991471264969860  0.3106024008952133
  0.2999883055165355  0.1036881879002891  0.4008480236184866
  0.3086373857765281  0.1965955429632658  0.4849110678317174
  0.3109128244565582  0.2985905392728725  0.5987365862717553
  0.3041311992571636  0.4061839684769382  0.7126948496464394
  0.3081122016142501  0.4984760034284932  0.7983540215709155
  0.3078884702745199  0.5910931130211168  0.9106949244065632
  0.2948482602795153  0.6983855241541903  0.9994577524344663
  0.2924435389633615  0.7984189881193302  0.0928478455274870
  0.2993609071212617  0.8945682764696059  0.1900062003285612
  0.3946283859908064  0.0028985638437149  0.3984387852670181
  0.3947790195471512  0.1102099297635775  0.4926922678031502
  0.4095343391824002  0.2034411399728597  0.5874280712364026
  0.3958375333920614  0.3138985547963173  0.6939885602723734
  0.4090526292231118  0.3972630494512046  0.8024508640270440
  0.4132542925168465  0.4904868388847916  0.9056243813242517
  0.4111609637865783  0.6060063731815930  0.0121748282183773
  0.4058268665031761  0.6997322273279210  0.1070778790981137
  0.4150520149520247  0.7807349267874599  0.2027732920644780
  0.3983775629151722  0.8795931649246427  0.3167151839241953
  0.4945574795838183  0.9952639584771816  0.5059288974072018
  0.4988470541177605  0.0914543591819239  0.5961551124973212
  0.4941593223970884  0.2070806414132988  0.6844502621366146
  0.4820776791028791  0.3104533115878212  0.8031779852860623
  0.4983310454513017  0.4074895483440883  0.9068697935763410
  0.5002124706554625  0.4939863712768755  0.0195799866669830
  0.5204317092450168  0.5910448541701356  0.1116218104330855
  0.5088589352634472  0.6960785881288558  0.1913989243113292
  0.5090708383133702  0.7865804557034366  0.3026873617294825
  0.4954421880431426  0.8895484031332614  0.4113557767672233
  0.5963544091807336  0.9886203504678477  0.5992885669388812
  0.6020234970595908  0.1028625204161813  0.7079325044641820
  0.5984864407990287  0.2208118601938054  0.8093598880979016
  0.5965199966667427  0.3203441132354001  0.8852554562986583
  0.6045704011809221  0.3931573000642814  0.0095636641984740
  0.6022001047594117  0.5070986833646813  0.1033094502511815
  0.6244780657603357  0.6154805418918627  0.2182482683745590
  0.5981798838122927  0.7043120720935221  0.3066518954310595
  0.5879735425346979  0.7953512392562061  0.4024687026499336
  0.6046491764481772  0.8887238437180045  0.4959635032499250
  0.7076206023666103  0.9920295212018786  0.6946160048570249
  0.6834555420109041  0.0932354877264814  0.8001723325635126
  0.7064378786219407  0.2021234370610259  0.8799771638770508
  0.7050335506297500  0.2991169810242624  0.9936046532225404
  0.7036126816028201  0.4089988943120417  0.1186507278398139
  0.7073745077498188  0.4918311844956094  0.2201454703459476
  0.7077490450227373  0.5923013256827190  0.2971721535201510
  0.6923121635199152  0.6992359600961890  0.4075373929192168
  0.6947082278993335  0.7820828937406219  0.5185315516297209
  0.6884157915287759  0.8809385443203723  0.6026061089021724
  0.8033524230375448  0.0038013233018290  0.7970831651627321
  0.8002840499035742  0.1030605395109632  0.9094047494107258
  0.7935435699150020  0.2002168200757097  0.9986395985809864
  0.7788469979286177  0.3004526539844292  0.1058976238660989
  0.8144567353158223  0.4056332363515125  0.2109181381395686
  0.8024150886883632  0.4687359667626936  0.3032012190185966
  0.7991951720197150  0.5936728073141140  0.3938254979643361
  0.8136237461012854  0.7077956215328172  0.4972070522130423
  0.8039100030951616  0.7984939134782536  0.5981483759910446
  0.8126436018190049  0.8934279769529283  0.6951846113187798
  0.9033003238018154  0.0009224585128891  0.8901088555034420
  0.8916165391300197  0.0992006618890002  0.0014941629961172
  0.8890957743863268  0.2068172429227886  0.0940715768672149
  0.8973291721625642  0.3047976995785788  0.1987290974024418
  0.9167907492678751  0.4055874036332483  0.3087221904240351
  0.8975639146687016  0.4984874964881811  0.4054568310278341
  0.9008232461131911  0.5871179600485732  0.4937681579010018
  0.9195565267493606  0.7129259584295582  0.5940594557272476
  0.9005133611104483  0.8073051108306970  0.7000280264755574
  0.9062496421513799  0.9177115373443456  0.7996688455036818
  0.1159186381276669  0.1015517449584564  0.9977389633580174
  0.0881953291588289  0.1980602518987666  0.1018365691293042
  0.1075886631270677  0.2833488126473185  0.1962372962548500
  0.0986812913978241  0.4149794952501153  0.2891084031332554
  0.1078770276898169  0.5059047398871428  0.3999758153377329
  0.1044853017785314  0.6017669731673081  0.5063881121878069
  0.1055497269112635  0.7052247851241660  0.6116907559343829
  0.1039137553867775  0.8014054055855837  0.7077199842860864
  0.1110407609342658  0.9074360005714155  0.8024771662579440
  0.1059338334801581  0.0100111264017499  0.8953263141353744
  0.2091608523606610  0.1002393976333877  0.0896856984357512
  0.2034072617318614  0.1867224889883587  0.2020468350753575
  0.1977877155305805  0.3099792885883659  0.2685483645627471
  0.2106718620985220  0.4085064417513848  0.3787513844908474
  0.2045450098807180  0.4941433618247189  0.4937952115425830
  0.1898902130901661  0.6090007909335498  0.5991934644413206
  0.2060836327706497  0.6904321882812283  0.7191759220018596
  0.2044559477155303  0.7953686593176386  0.8080978048141745
  0.2005813866336510  0.9050940587128906  0.9057053351110653
  0.1894248194090622  0.9974630404038010  0.9917104002285626
  0.3025316401990423  0.1048343382300416  0.2137420409037887
  0.3098319630485022  0.1999332958739046  0.2992206280802847
  0.3031311592581147  0.3046379367157925  0.3867942644222779
  0.2880061931858791  0.4077217499583341  0.5115782771838795
  0.2935037732434935  0.4964995523916116  0.6072749739291936
  0.2883955739149044  0.6047818951929713  0.7138654032046858
  0.3139071836384844  0.7038977967191258  0.8091494212042534
  0.3007424247041754  0.7957533982524225  0.9102389466917487
  0.2874448575033952  0.9078112811599723  0.0039577686245593
  0.3049737539582367  0.9884227108878392  0.0912041165686546
  0.4124343801338028  0.1028835942001365  0.2989244760839043
  0.4142681169495930  0.1996962905645105  0.4021490026427941
  0.3909879393347779  0.3129180676650520  0.4866552643984647
  0.4021837980048062  0.4136365129401653  0.6052694002523751
  0.3910504468941198  0.5076760191424015  0.6908245003690396
  0.3959424389895503  0.6054534201566639  0.8052467450774969
  0.4069296959596187  0.6960103392776347  0.9029068979310040
  0.4091638994309648  0.7974884193233507  0.0144677031499256
  0.4191154443941798  0.8932496359610482  0.0927604133234894
  0.3984760681888559  0.9835468812647292  0.2026011461631896
  0.5010860884264687  0.0922224347039347  0.4142573976810056
  0.4881924577986254  0.1946223266112739  0.5064902449941684
  0.5012630184995572  0.3011197061974684  0.5887322763743725
  0.4975117054355849  0.4213589095497738  0.7045695573914941
  0.4956090016904326  0.5055354201090481  0.8069544367991242
  0.5059141168067427  0.5872157039118093  0.9091329101688075
  0.5036832989690723  0.6910746786981292  0.0022681121878065
  0.5076195233446796  0.8041236280088597  0.0996876774362505
  0.4979786809837847  0.8996606485559866  0.2115155339158576
  0.4941864593700132  0.9908743058498573  0.2869744177519564
  0.5934373805385604  0.1018159396204865  0.4924848603604701
  0.5871784728935054  0.1920424332753967  0.5865195638199054
  0.5965813885383682  0.2984476288659792  0.6997465546058450
  0.5880840199042865  0.4069124420847103  0.7965981171876848
  0.5903123387538400  0.4924141668055526  0.9095754253470147
  0.6134871312587791  0.5970391890669262  0.9934583105164165
  0.6076006714125839  0.6857431708768829  0.1059988047903602
  0.5973655784386054  0.7924911392585869  0.1931192004952251
  0.6138820461417609  0.8995920044760837  0.2941483383728993
  0.5847690659746192  0.9890912254470123  0.3975537468155537
  0.6965621447108390  0.0967270293564439  0.6115765200828562
  0.6976795923906565  0.2022813918716224  0.6928761643770400
  0.7120392066855530  0.3023843384681300  0.7875576291040716
  0.7091634789647898  0.3963464060379494  0.8963238522892283
  0.7040022285183696  0.4749201247589312  0.0024066726982710
  0.7094770472131628  0.5859906359372360  0.1011609437870504
  0.7187772795885792  0.7069301288064551  0.2088684778933825
  0.7097538601461864  0.7998700597604795  0.3043153410633082
  0.6909759300969043  0.8957585747958348  0.4027472122092348
  0.6719866665079408  0.0013731654008211  0.5053953301111846
  0.8002842056141546  0.1067426956501052  0.7108237651484473
  0.7995310764029426  0.1947300997595320  0.7899095250113106
  0.8046519120973343  0.2884211747339336  0.9035739896669099
  0.7983014899645227  0.3909777624342254  0.9963555943906073
  0.8061426889835985  0.5003232108759335  0.1016542496607258
  0.8072853832051621  0.5997944729887408  0.2180737606247476
  0.7936090383562302  0.6987341710911679  0.3229420799504794
  0.8120962738982413  0.7963871464965138  0.4038608266469836
  0.7894744715601973  0.9005671388776477  0.5057830646889343
  0.7966101702340396  0.0024741220447098  0.5901332482559951
  0.8998687078879044  0.0899211509249795  0.7879346653651069
  0.8989435999142898  0.1902358753362989  0.8929782014713936
  0.8932811328301682  0.2926096078664813  0.9885150267850733
  0.9019029251684501  0.3992849975000610  0.1074564710364072
  0.9049447846479879  0.4984554396323873  0.1963107687912213
  0.8985494435846775  0.5934210433084957  0.3067728139806221
  0.9082615128211202  0.6847796809599771  0.4143044417990041
  0.9091902673745835  0.7982822247089345  0.4988123078021971
  0.8994152586843143  0.9071412856836716  0.5919614152044019
  0.9087266012713968  0.9844199476202959  0.6851480083807502
  0.0148114140139484  0.1000119325730324  0.9170327382681336
  0.0038212175900583  0.1892929473107756  0.9936360291421664
  0.9913944572748292  0.2918909268826937  0.0920305349872592
  0.0208183400395257  0.3894699854765378  0.1775731787338373
  0.9965789581200468  0.5067294307278374  0.2869442222804253
  0.9979153796338167  0.5933569695959591  0.4093582176614845
  0.0071184309897347  0.7017529544534682  0.5084198447655979
  0.0020867060308092  0.8013361853289211  0.6168627966000813
  0.0098076545796530  0.9154768200757104  0.7072836813409182
  0.0062102045189434  0.0104808623604171  0.8131644089426473
  0.1967382090902632  0.1988025970810199  0.9971728844551322
  0.2101692807314137  0.2996513021118545  0.1090537553867748
  0.1984839822861346  0.4122526158900968  0.1944206471274512
  0.1972719025737462  0.5124615109164097  0.2844506806980789
  0.1945884774172058  0.6143270893550152  0.3994405323682741
  0.1970589785957486  0.7062686726506513  0.5113824856551048
  0.2126093145401313  0.7961979976667237  0.6082159343825140
  0.2010088812171134  0.9082072122092342  0.7055156139139527
  0.2072183457536738  0.9958446094140641  0.7891979524297028
  0.2140668784076567  0.1104086993166860  0.8906319873336344
  0.2991331801623787  0.1978995457251003  0.0907892131139718
  0.3068604437989606  0.2883748425037496  0.1868136887216991
  0.3044419513821097  0.4073551286874135  0.2792577076736293
  0.2811377048165511  0.5085450427370759  0.3814148205995096
  0.2970575462489009  0.5965801595200091  0.5004180252851143
  0.3064990152615437  0.6977626727935018  0.5968058679555241
  0.3074353639199074  0.8044009899764291  0.7069554424894662
  0.3046752353515387  0.9029532877788640  0.8035189685959878
  0.3045507792671600  0.0006579319540023  0.8873409361681865
  0.3027463917525779  0.1007585200352352  0.9933349620247114
  0.3875626889835928  0.2003974667269830  0.1974990009761655
  0.3986091840670483  0.3086729892145428  0.2945943920382845
  0.3894892288278839  0.4292355915335335  0.3928651303540391
  0.3832320106664113  0.5041923544677474  0.4940975352967811
  0.3945626118425736  0.5919564819885252  0.6067579171924464
  0.3935032894454906  0.6920936272945895  0.7049379590962133
  0.3866830718316265  0.8026238146710796  0.8013229375491093
  0.4107560010475950  0.8939371462584234  0.9195371086402702
  0.4020130463560392  0.9982935001547588  0.0010910064046072
  0.3889207214113952  0.0890880617128147  0.1037610423561333
  0.4997592162091351  0.1979804490369261  0.3082525016071074
  0.5019797371491137  0.3032418780505211  0.3928296469131709
  0.4779835099164274  0.4023231913525862  0.5023065703197531
  0.4894757824813709  0.5129540672841131  0.5957146010809282
  0.4983344320373320  0.5980379995714387  0.7063654284421830
  0.4897034246803642  0.6964204276088637  0.8118716763886553
  0.4967298892883534  0.7916993095402489  0.8978181848051250
  0.5084707840289511  0.9016312783029008  0.9998917373395884
  0.5048524458941444  0.0046420466179384  0.0951796000095229
  0.4974398642889426  0.0953941482345684  0.2028322611366420
  0.5856466907930766  0.2026579286207451  0.3974896311992566
  0.5911150844027517  0.2901376052951150  0.4930010890216892
  0.5831686421751883  0.4109641599009564  0.5833280288564566
  0.6083134139663358  0.5061833323016103  0.7084483755148696
  0.5870620275707736  0.6001825080355232  0.8085568405514181
  0.5950283612294953  0.6973273464917469  0.8857412433037339
  0.5929908464084193  0.7991562772314964  0.0018274912502108
  0.5940844508464096  0.8988502397561930  0.1065625475583900
  0.6086207876002945  0.0093173786338454  0.1994189828813617
  0.5909517421013817  0.1014199914287772  0.3084331758767647
  0.6912712387800255  0.2011409880717139  0.5047989190733588
  0.6941599885716982  0.3123656360562848  0.5908310040237126
  0.6954139891907332  0.3991703259446169  0.6938501935668171
  0.6932241341872825  0.5068283855146305  0.8025623642294235
  0.6987099292873964  0.5992240660936616  0.9074527030308772
  0.6918071284017060  0.7142556629604044  0.9957265974619673
  0.6994807409347388  0.8056917821004248  0.1083706664127035
  0.7046273664912732  0.8990318082902817  0.1952789576438647
  0.6912281817099597  0.0050367662674731  0.2970829489774047
  0.7038073607771267  0.0995340201423787  0.3997353110640205
  0.7944781219494743  0.2044115378205262  0.6011830884978906
  0.7955705297492912  0.2993161924716077  0.7010351782100415
  0.7854047822670864  0.3922852546367963  0.8020657522439976
  0.8019016290088317  0.5061997033403998  0.9017116797219131
  0.7945398838122912  0.6100663522297083  0.9981623828004089
  0.8004250027380309  0.7058252670174525  0.1024593262065210
  0.8087311059260500  0.7995973862527066  0.1999675036308659
  0.7926982219470986  0.9047640665698466  0.3168784771791167
  0.7888331277826737  0.0041054312992514  0.4088976038665777
  0.7891571186400341  0.1019522968500723  0.4948764057998645
  0.8932372248279776  0.1906056284374174  0.6960138101473774
  0.8988537701483281  0.2941360410466416  0.7948566100807142
  0.8829819875717249  0.3877418351943973  0.8924231875431516
  0.8956051317825739  0.5049715449632117  0.0012301230923057
  0.9069132834932532  0.6010883150401156  0.0966249517868647
  0.9022869765005623  0.7037812561605676  0.2143677331492100
  0.9036763158020023  0.8057548901216620  0.3171907064117505
  0.8916332125425583  0.9033221456631964  0.3938738468131717
  0.8983462527082722  0.0158980443322747  0.4918863146115555
  0.8846648217899542  0.1019957472441106  0.6061189862146108
  0.9926291274017274  0.1871799947620261  0.7927961600914273
  0.9973135149163141  0.2872026066046018  0.9078918206709332
  0.9802613771100681  0.4000829156448660  0.0068195133449223
  0.0030518968595956  0.4987842470417405  0.0917970824504195
  0.9990023104211829  0.6036415909144992  0.1964589538344299
  0.0050628842170397  0.6987239003833210  0.3153004752267776
  0.9972123625627987  0.8051448303611792  0.4007751772576853
  0.9992639413347320  0.8991964843694191  0.4978234437275333
  0.9973086031284950  0.0117074702983260  0.5951286636032478
  0.0024277464822262  0.1012117830527828  0.7048124625604117
  0.1067236118187651  0.2136129725482760  0.8830104073712519
  0.1044711287826487  0.2856474650603573  0.9878957215304425
  0.0977420999500040  0.3880813952048783  0.0977114425847034
  0.1005517554343953  0.5081542996595303  0.1957633603961781
  0.0974391743053715  0.6041077393395398  0.2952366300802396
  0.1009422199471430  0.7030336453893966  0.3949328496940581
  0.0923003014213961  0.8086858698602413  0.4995047594104918
  0.0943104649889293  0.9072520744744139  0.6111505416537710
  0.0859804385609877  0.0074176586271761  0.7099447403633263
  0.0964017942429933  0.1114648751220244  0.8098536768172195
  0.3026600976167231  0.3085445856051052  0.9975085726530324
  0.3043719882859932  0.3931979981429023  0.1007470236422918
  0.3028939563343727  0.5232695231065918  0.1886963005642741
  0.2748326573176811  0.5922256174852976  0.2875505240351401
  0.2943536991976359  0.7023055298683332  0.4027343129925498
  0.2879197709578349  0.8064097926239882  0.5139174948215555
  0.2867433956334366  0.9048929087402655  0.6112111030689746
  0.3050358143853700  0.0001190933549182  0.6970422899454789
  0.3069531930192113  0.1036822313754442  0.7825924311325920
  0.3093368481702825  0.2144165634151562  0.8931145206066518
  0.4021642189471706  0.2998287393157284  0.1065840346658433
  0.3950031023070864  0.3986101130925448  0.2057900169043592
  0.4021439194304932  0.5030713859193838  0.2947381981381412
  0.3764111249732167  0.5973300211899684  0.3709992381133773
  0.3873322006618878  0.7000651141639480  0.4965360415228233
  0.3918237618151963  0.7987053022547101  0.5989531149258340
  0.3909713783005202  0.9081917921001903  0.7021564453227285
  0.4147011280683799  0.9973009109306901  0.7954326749363076
  0.4025507659341443  0.1072434570605481  0.8924215190114495
  0.4003066188900277  0.2104677860050970  0.9817224356562946
  0.5090969724530368  0.2961864827027938  0.1971809847384591
  0.4907300959500986  0.4071043851336853  0.3010258846217937
  0.5021382990881165  0.5059633723006627  0.4004023761339042
  0.4760847789338314  0.5982889340729969  0.4898884631318268
  0.4833932058760482  0.6891829289778784  0.5958386095569139
  0.4799359620009014  0.7935625080355209  0.7035546310802090
  0.4948924077998171  0.8934584276564834  0.8091020913787759
  0.5016539653817773  0.9827838137187186  0.9003764891312116
  0.4932507030784947  0.1040187090783533  0.9969142934692030
  0.5087753543963274  0.1992774562510391  0.0931243732292089
  0.5996322501845199  0.2951543210875940  0.2974255417728173
  0.5920108925977985  0.4039609318825725  0.3919534444417963
  0.5916173053022575  0.5042240265707960  0.4998677907668849
  0.5875830961167594  0.6022494288231215  0.5990867860289057
  0.5931179205256996  0.6935273679198133  0.6913951158305736
  0.5898374643460897  0.7977031527820770  0.7963144772743505
  0.6123674050617822  0.9046902373752985  0.8968297578629105
  0.6002499335730107  0.9924179652865419  0.0080569238827621
  0.6122003609437883  0.0988844875122012  0.0924956881979000
  0.6094436794362039  0.1965746163186566  0.2000567676960046
  0.7030745153686837  0.2987168491226413  0.4055294702507055
  0.6993136830075457  0.3904006080807605  0.4826289345491759
  0.6976925239875271  0.5101135692007333  0.5962647036975284
  0.6968915735339607  0.5948195062022350  0.6970567700769053
  0.7082130896883427  0.6930096126282734  0.7954702130901623
  0.6859837751482090  0.7989939506202219  0.8872153448727431
  0.7014284183709947  0.8957019756672437  0.9918050489274037
  0.7033515940096677  0.0137505926049357  0.0914917101973742
  0.6942311844956066  0.1108813190162152  0.2065717454346299
  0.7051290945453701  0.1958606761743766  0.2967393638246705
  0.8178910021189978  0.2945501659484293  0.5048495150115500
  0.8133514535368178  0.4030900821408991  0.5917937539582425
  0.8035364705602248  0.5066236203899877  0.6957740810933046
  0.7903759653341567  0.6069735153924896  0.8045398904788001
  0.7883625580343292  0.7037179019547182  0.9075149563105640
  0.8156768234089640  0.8085804409418813  0.9878120659031921
  0.8109660922359012  0.9103383919430499  0.0884240789505029
  0.7939240984738447  0.9973567048403638  0.2024320639984794
  0.8046933968238861  0.0847522749458349  0.3044756181995680
  0.7852851627342190  0.2043310992595408  0.3814767453155881
  0.9080344353705883  0.2969935801528507  0.6144649351205942
  0.8933637641960885  0.4028465365110350  0.7049009452155914
  0.8798769972143532  0.5111392723982746  0.8006839732387334
  0.8926210456893884  0.6021322444703685  0.8986608061712786
  0.9011971705435613  0.7035151820194727  0.0066916340087175
  0.9026996628651673  0.8132183019451915  0.0939889178829105
  0.9049938410990208  0.8979288550272599  0.2094832137330087
  0.9051702445179899  0.9943269612628285  0.3122190585938398
  0.9113477945763222  0.1026493835861046  0.3936326401752339
  0.8989125339872857  0.1932627632675405  0.4958829656436734
  0.0116743001357094  0.2956123758958142  0.6955831942096609
  0.9925035337253902  0.3965523235161044  0.8150718930501668
  0.9845825194638209  0.5037719492393009  0.8986450036903904
  0.0031667765053243  0.5980246298897640  0.9918684993214413
  0.9900030604033248  0.7028317763862759  0.1029115559153340
  0.9981822594700134  0.7892792643032323  0.2068592485893177
  0.0031250932120699  0.9033552939215710  0.3040498230994473
  0.0007746325087510  0.9993833008737880  0.3889439780005262
  0.0053450965453194  0.1110148272660183  0.4962622856598671
  0.0004813752053536  0.1907358429561228  0.5976530787362222
  0.0928669688816939  0.3069358710506904  0.7842918225756534
  0.0995641637103901  0.3929273731577823  0.9085849970238797
  0.0991659636675308  0.4954819847146510  0.9956695969143610
  0.1076425961286631  0.5893489712149744  0.0885370019761424
  0.0888753005880787  0.6977043722768528  0.2049065655579625
  0.1129558386705085  0.8160618394800139  0.2950752391609726
  0.0969308154567727  0.8974811528296911  0.4018155282017091
  0.1006713992523984  0.0019349615485353  0.5014453041594251
  0.1059579848098835  0.1004414194900107  0.5915989966905570
  0.1027862765172287  0.1964971210209256  0.6963809637865737
  0.2141144820361447  0.3196815166305598  0.8866706321278031
  0.2127173714911521  0.3774978567176959  0.0025983500392854
  0.2205334206328402  0.4975288426466022  0.0908394400133332
  0.1913325801766632  0.6009498745267976  0.1890625313683003
  0.1928025718435293  0.7014189452632067  0.2921129463584222
  0.1933295850098773  0.8067646227470746  0.3975105745101288
  0.1882386709840276  0.8977472169710268  0.5108849622628000
  0.1946845303683276  0.0133698773838731  0.6036532420656684
  0.1862103454679627  0.1055178357658164  0.7016049727387426
  0.2142749953572505  0.2032105273683982  0.7898149734530122
  0.4068440494273915  0.3845190457370080  0.0060139744291803
  0.4017610494988233  0.4931070045951316  0.1075477545772685
  0.4022211371157809  0.6066403409442600  0.1941293602533278
  0.3991602390419260  0.6906336968167395  0.3006855098688135
  0.4014382938501484  0.8002872593509665  0.4064470912597287
  0.3944295735815828  0.8920797281017130  0.4991234527749313
  0.3852143825147039  0.9962149763100854  0.5868984562272317
  0.4119899407156993  0.0961918030523066  0.6922985400347628
  0.4012800728554069  0.2036591157353413  0.7959962681840906
  0.4033079907621229  0.3121761319968570  0.8995736934834895
  0.5018090821647121  0.3936526587462197  0.1143840370467402
  0.5023565886526526  0.5021310159281924  0.1962117240065737
  0.5112779576676729  0.5900187900288074  0.2825700378562388
  0.4962342482321844  0.6865390666888871  0.4080587505059370
  0.4924123654198738  0.7793788505035621  0.5142003790385914
  0.5066204123711344  0.8981859127163645  0.5967727987428901
  0.5001256984357525  0.9843371424489860  0.7021589524058953
  0.5025252608271202  0.0994446317944835  0.7823907126020799
  0.4979036151520191  0.2001370024523226  0.8980087150305920
  0.5047131658769999  0.2969457612913970  0.0062747325063697
  0.5921971491154991  0.4137423928001738  0.2155580657603409
  0.6000901216637686  0.4953954962977036  0.3006152215423441
  0.6071315049641655  0.6000852555891498  0.3910747734577740
  0.5963748463131822  0.6813682636127680  0.5096837237208618
  0.5806477764815128  0.7880896521511360  0.6010291331158797
  0.5895864560367627  0.8780822413752034  0.7072179629056450
  0.6037056722459013  0.9930511373538735  0.8011875150591621
  0.5934117101973797  0.0869115154401072  0.8993546153662990
  0.5986697854812988  0.2169322439941936  0.9871955382014690
  0.6132179352872527  0.3145853303492743  0.1204043951334484
  0.6863067850765461  0.3900313811575913  0.3016211047356023
  0.7010175672007790  0.4928141991857302  0.3893008704554646
  0.7058459865241318  0.6058554443941802  0.4995495140591899
  0.7013792828742140  0.6952157467679356  0.6148533915859176
  0.6919533673007763  0.8078346329849282  0.6923144725125567
  0.6909851722578040  0.9071835665817503  0.7945287131258780
  0.7170505930811188  0.9948386781267118  0.9003866855551053
  0.6970676317230513  0.0919413666341242  0.9971612175900546
  0.6909941534725377  0.1890862203280861  0.0983751620199484
  0.6905615313921061  0.3099683607533166  0.2048641999000012
  0.8083877698150062  0.3844938010999712  0.4056272083997996
  0.8021117901954682  0.4799981195685845  0.4871675593438241
  0.8044616709125947  0.6009811509249801  0.5974509292635872
  0.8053260384276584  0.7022538468131714  0.6914701940429993
  0.7964436741982368  0.7995571076879102  0.8009481036165838
  0.7988817956715337  0.8923796238184778  0.8783325773195898
  0.8107403280874266  0.9985837484821758  0.9947576381514693
  0.8040162800885682  0.0773893835861017  0.1224091659722362
  0.8110453589200262  0.1956027042213293  0.2048026632699234
  0.7985004028475515  0.3069455217732937  0.2877568048379828
  0.9006189195495367  0.4087901602342825  0.4937369910240221
  0.9079019337634833  0.5044057270064997  0.6078061941382344
  0.8833770510225918  0.6006711030689758  0.6937298735744406
  0.8999959334301550  0.6888314773457793  0.7921298883359924
  0.8961608023618481  0.8054815752005879  0.8775915959143816
  0.9119347429823108  0.9050172343515612  0.9858297869098323
  0.9036975157734304  0.0044844498940506  0.0983722706602208
  0.9197308468845975  0.1049322873264913  0.2088809161686598
  0.8942977986238390  0.2000500602366628  0.3019289921668502
  0.9097921511392570  0.2957847427442175  0.4033343258493858
  0.0001206914121070  0.3934480974262513  0.6055874026808894
  0.9991705049879798  0.4995336630080232  0.7125204847503639
  0.0030888293135902  0.6083728949310725  0.8002679369538797
  0.9866372581605205  0.7042445837003868  0.8982719273350668
  0.9902555267731685  0.8042490026427913  0.0018745929858781
  0.9981609656912909  0.8959159862860417  0.1117419018594816
  0.9990220761410455  0.0072752001142860  0.2019293650151184
  0.0006981190924051  0.1002481293302537  0.3157803428489814
  0.0040476955310567  0.2245809733101609  0.3993551648770293
  0.0106108683126607  0.3034726206518883  0.5182534853932026
  0.0919930749267905  0.3976025818432873  0.7064460822361340
  0.0905521139972834  0.5080375838670506  0.8114432532558737
  0.1006841141877572  0.6000060841408512  0.9087438975262501
  0.0974771624485129  0.6914510587843168  0.0013879983809915
  0.0950912449703551  0.7951280950453565  0.0977010152139215
  0.0918310230708812  0.9052725449394075  0.1921342015666312
  0.1021615537725324  0.9899029627866014  0.2910832508749763
  0.1018762077093385  0.1036900530939704  0.4077818423370871
  0.1039454022523287  0.2103039151448769  0.5021169724530381
  0.1012010590224008  0.2848372267326980  0.5935797161972332
  0.1872029951667784  0.4013086940787147  0.8080893593009719
  0.2116823847051279  0.4906719220970928  0.9175325135115813
  0.2101982409942593  0.5934858403371379  0.9886486283659934
  0.1980454198709580  0.7031685831289707  0.0868585638437196
  0.1940791409728320  0.8006626961262810  0.1841777343396558
  0.1985315011547328  0.8894491816861532  0.2955440908549818
  0.1934213071117341  0.0010495140591900  0.4096842370419722