Li 
 1.0000000000000000
    21.0004999999999988    0.0000000000000000    0.0000000000000000
     0.0000000000000000   21.0004999999999988    0.0000000000000000
    -0.0000000000000000   -0.0000000000000000   21.0004999999999988
 Li 
 500
Cartesian
  0.1677335000000000  0.0766698100000000 -0.0028532700000000
  0.0456242700000000  2.2330566300000001  2.0332644000000002
  0.1695360700000000  4.5702477300000002  4.0722031500000000
  0.1440005900000000  6.3670357199999996  6.2203037200000004
  0.1845691100000000  8.3430556399999993  8.5552219899999997
  0.0815968600000000 10.3638435799999993 10.7156847600000003
  0.1737292500000000 12.4267988200000001 12.6699672900000007
 -0.0554325100000000 14.6155959000000006 14.9438180000000003
  0.1082377600000000 16.9596954400000008 16.7047446800000010
  0.1053609100000000 18.9792911599999989 18.8568485999999993
  2.0442125199999999  0.0789085700000000  2.0621790299999998
  2.1707062600000002  2.1469348199999998  4.2084807700000004
  1.9027891500000000  4.2765107100000002  6.3827457100000000
  2.3396508599999999  6.4649434100000001  8.2646483400000008
  2.4207183900000002  8.2050291899999994 10.4685940599999991
  2.0245348999999999 10.3933400900000006 12.5860827999999998
  2.0166132399999999 12.4301320400000002 14.6837085700000003
  2.3346446699999999 14.9500076899999996 16.8909324000000005
  2.0792187700000002 16.8545511999999995 18.9242650599999997
  1.8168699699999999 19.1800639900000007 20.9142748300000001
  4.3594531600000002  0.2410729900000000  4.0363355399999996
  4.1239961300000001  2.2769023100000001  6.7413910000000001
  4.1911587199999998  4.6001920600000004  8.2917918400000001
  4.5477918300000004  6.4540769400000002 10.5402741399999993
  4.2206925200000001  8.3941080600000006 12.8481086999999992
  3.8852416200000000 10.6817143899999998 14.9744387099999994
  4.2570698599999997 12.4859265700000002 17.2262078999999986
  4.1450766899999998 14.9391190399999996 19.0421295599999993
  4.1436041499999998 16.8340568200000007  0.1592577500000000
  4.0524647700000003 18.7193396700000001  1.9815840000000000
  6.3650912399999999 -0.0179107700000000  6.5228057200000000
  6.2999044099999999  2.1775037899999998  8.4180089200000001
  6.4815394199999998  4.1286047000000003 10.1833748800000006
  6.5293247699999997  6.2705506199999999 12.5737676799999996
  6.3869072500000001  8.5300664299999998 14.9669481900000001
  6.4705102900000000 10.4682453100000004 16.7658336299999995
  6.4658118199999999 12.4132509199999994 19.1250487599999985
  6.1919608899999998 14.6664452000000001 -0.0113874700000000
  6.1414605399999997 16.7671979600000007  1.9498511800000000
  6.2867287300000001 18.7863810899999990  3.9902252100000002
  8.2873934200000008  0.0608712900000000  8.3674137099999992
  8.2905567999999992  2.3144636300000001 10.3467839700000006
  8.6004258900000004  4.2723656600000002 12.3362832099999995
  8.3127861200000002  6.5920265999999996 14.5741067599999994
  8.5903097400000004  8.3427226700000006 16.8518693699999993
  8.6785467700000005 10.3004688600000005 19.0185648200000017
  8.6345858199999999 12.7264368399999999  0.2556774800000000
  8.5225671100000007 14.6947266400000007  2.2486890000000002
  8.7162998399999996 16.3958238300000012  4.2583405200000000
  8.3661280100000006 18.4718962600000012  6.6511772200000001
 10.3859543500000004 -0.0994592400000000 10.6247598100000005
 10.4760375600000000  1.9205872700000000 12.5195554399999995
 10.3775928499999992  4.3487970100000002 14.3737977299999997
 10.1238723000000004  6.5196747700000000 16.8671392800000000
 10.4652011199999997  8.5574842600000007 19.0447190999999982
 10.5047119900000006 10.3739607899999999  0.4111895100000000
 10.9293261099999999 12.4122374600000001  2.3441138300000000
 10.6862920700000004 14.6179983900000003  4.0194731099999998
 10.6907421399999993 16.5185828599999986  6.3565859400000004
 10.4045336699999993 18.6809612399999985  8.6386769900000004
 12.5237407699999999 -0.2389783300000000 12.5853595499999997
 12.6427944500000002  2.1601643600000000 14.8669365599999992
 12.5685144999999991  4.6371594700000003 16.9969623299999988
 12.5272181899999993  6.7273865500000003 18.5908072100000012
 12.6962807099999999  8.2564998799999998  0.2008417300000000
 12.6465032999999991 10.6493258999999991  2.1695501099999999
 13.1143516200000008 12.9253991199999998  4.5833227599999997
 12.5620766499999998 14.7909056700000008  6.4398431299999999
 12.3477383799999991 16.7027737000000016  8.4520439900000000
 12.6979350300000000 18.6636450799999984 10.4154815500000009
 14.8603864600000009 -0.1673840400000000 14.5872834099999995
 14.3529081099999996  1.9579918599999999 16.8040190699999989
 14.8355486699999997  4.2446932400000001 18.4799604299999984
 14.8060570800000004  6.2816061599999999 -0.1343054800000000
 14.7762181199999993  8.5891812800000000  2.4917246099999999
 14.8552183499999995 10.3287007899999992  4.6231649499999996
 14.8630838199999999 12.4386239900000000  6.2407638099999998
 14.5389015900000000 14.6843047799999997  8.5584890199999997
 14.5892201400000001 16.4241318099999987 10.8894218499999997
 14.4570758300000008 18.5001499000000003 12.6550295899999998
 16.8708025600000013  0.0798296900000000 16.7391450100000014
 16.8063651900000011  2.1643228600000000 19.0979544399999988
 16.6648117400000011  4.2046533300000002 -0.0285691100000000
 16.3561763800000008  6.3096559599999997  2.2239030500000001
 17.1039986699999993  8.5185007800000001  4.4293863599999996
 16.8511180699999983  9.8436896699999998  6.3673772000000000
 16.7834982100000012 12.4674257900000001  8.2705323699999997
 17.0865054799999996 14.8640619500000000 10.4415966999999998
 16.8825120200000001 16.7687714300000010 12.5614149699999995
 17.0659219600000007 18.7624342300000002 14.5992244299999996
 18.9697584500000005  0.0193720900000000 18.6927310200000001
 18.7243931299999993  2.0832635000000002 21.0318781699999988
 18.6714558100000012  4.3432655100000002  1.9755501499999999
 18.8443612800000011  6.4009040900000000  4.1734104099999998
 19.2530641299999985  8.5175382699999993  6.4833203599999996
 18.8492909900000001 10.4684866700000008  8.5147961799999994
 18.9177385800000017 12.3297707200000008 10.3693781999999999
 19.3111468399999993 14.9718015900000001 12.4755456000000002
 18.9112308400000018 16.9538109800000001 14.7009385699999999
 19.0316956099999999 19.2724011399999995 16.7934455900000010
  2.4343493600000001  2.1326374200000000 -0.0474829000000000
  1.8521460100000000  4.1593643199999999  2.1386188700000002
  2.2594157199999998  5.9504667400000004  4.1210813399999999
  2.0723564600000000  8.7147768899999996  6.0714210199999998
  2.2654715200000002 10.6242524899999999  8.3996921100000002
  2.1942435800000002 12.6374073199999994 10.6344035500000000
  2.2165970399999999 14.8100731000000003 12.8458117200000004
  2.1822408200000001 16.8299142199999991 14.8624735300000008
  2.3319114999999999 19.0566097300000017 16.8524217299999997
  2.2246634699999999 21.2107386600000005 18.8023002599999991
  4.3924824800000000  2.1050774699999999  1.8834445099999999
  4.2716542000000004  3.9212656300000002  4.2430845599999998
  4.1536409200000000  6.5097200500000003  5.6396499300000000
  4.4242144400000001  8.5788395299999998  7.9539684499999996
  4.2955474799999998 10.3772576700000005 10.3699463400000003
  3.9877894199999999 12.7893211099999995 12.5833623499999998
  4.3278593299999999 14.4994211699999997 15.1030539499999996
  4.2936771299999998 16.7031395300000014 16.9704579500000001
  4.2123094099999996 19.0074277800000004 19.0202648900000000
  3.9780159199999998 20.9472225799999983 20.8264142600000000
  6.3533157100000004  2.2015735200000002  4.4886897299999999
  6.5066261399999998  4.1986991800000002  6.2837828000000000
  6.3659059100000004  6.3975489899999998  8.1228729499999996
  6.0482740599999998  8.5623606100000007 10.7433996100000009
  6.1637259899999997 10.4267388499999996 12.7530780900000007
  6.0564512500000003 12.7007221900000005 14.9915304000000003
  6.5922078099999997 14.7822056800000006 16.9925424199999995
  6.3157412900000001 16.7112192399999984 19.1154730000000015
  6.0364857299999999 19.0644908099999988  0.0831151200000000
  6.4046013200000003 20.7573711400000001  1.9153320500000000
  8.6613281999999998  2.1606069200000002  6.2775634599999997
  8.6998375899999996  4.1937219499999996  8.4453301300000003
  8.2109422199999997  6.5714358800000001 10.2200038800000002
  8.4460608500000003  8.6865735900000001 12.7109600399999998
  8.2122549100000004 10.6614502400000006 14.5076599200000000
  8.3149891900000004 12.7148245499999994 16.9105842700000011
  8.5457270800000007 14.6165651299999997 18.9614963100000011
  8.5926464700000000 16.7476555500000011  0.3038290000000000
  8.8016338899999997 18.7586889799999987  1.9480150599999999
  8.3681966699999997 20.6549762799999996  4.2547253700000001
 10.5230584000000000  1.9367172399999999  8.6996124800000008
 10.2522857100000007  4.0871661699999997 10.6365483899999997
 10.5267740199999995  6.3236643900000002 12.3636721699999992
 10.4479945700000005  8.8487477800000001 14.7963129900000006
 10.4080368399999994 10.6164965900000006 16.9464466499999986
 10.6244494100000004 12.3318233900000003 19.0922456800000013
 10.5776011200000006 14.5129137900000007  0.0476314900000000
 10.6602637999999992 16.8869982500000013  2.0934910699999998
 10.4578012900000008 18.8933234500000005  4.4419319699999997
 10.3781627400000005 20.8088558600000013  6.0266062600000003
 12.4624817100000005  2.1381856400000001 10.3424283100000007
 12.3310415199999994  4.0329871199999996 12.3172040999999997
 12.5285074499999993  6.2675494299999999 14.6950275200000000
 12.3500584599999996  8.5453647400000001 16.7289587600000011
 12.3968542700000004 10.3409437099999995 19.1015387200000006
 12.8835364999999999 12.5381214900000000 -0.1373787500000000
 12.7599178999999996 14.4009494599999996  2.2260279000000001
 12.5449758300000003 16.6427101700000009  4.0555997699999997
 12.8918299100000002 18.8918818900000005  6.1772621799999996
 12.2804427700000005 20.7714102800000013  8.3488274600000008
 14.6281533199999991  2.0313159800000000 12.8434127100000008
 14.6516202799999995  4.2480103700000003 14.5507458900000000
 14.9531793600000000  6.3502223000000004 16.5391039900000010
 14.8927876399999999  8.3234726999999999 18.8232490599999984
 14.7843988000000000  9.9735600800000004  0.0505413300000000
 14.8993727299999996 12.3060963500000007  2.1244304000000001
 15.0946822600000008 14.8458861700000000  4.3863424699999998
 14.9051859400000009 16.7976711899999991  6.3907743200000002
 14.5108400199999998 18.8113779500000007  8.4578928300000005
 14.1120559900000000 21.0293371600000008 10.6135546299999994
 16.8063684600000016  2.2416499800000000 14.9276544799999993
 16.7905523700000003  4.0894294599999998 16.5884949800000001
 16.8980924799999990  6.0569888799999996 18.9755055699999993
 16.7647304400000010  8.2107285000000001 -0.0765343400000000
 16.9293995399999986 10.5070375899999995  2.1347900700000002
 16.9533966900000017 12.5959838299999998  4.5796580100000002
 16.6661866100000005 14.6737669600000000  6.7819451500000003
 17.0544277999999991 16.7245282700000004  8.4812792899999998
 16.5793586399999988 18.9123601999999984 10.6216972500000004
 16.7292118800000011 21.0524577999999991 12.3930932800000004
 18.8976928000000015  1.8883891300000000 16.5470219400000005
 18.8782650700000012  3.9950484999999998 18.7529887200000012
 18.7593504300000014  6.1449480699999999 -0.2411901800000000
 18.9404123800000015  8.3851845899999997  2.2566396200000001
 19.0042929500000000 10.4678134600000003  4.1226243000000000
 18.8699875900000009 12.4621386199999993  6.4423824800000000
 19.0739458999999982 14.3807156900000006  8.7006004299999997
 19.0934502100000003 16.7643258599999996 10.4753078700000000
 18.8881701399999997 19.0504205700000000 12.4314856999999996
 19.0837129899999987 20.6733111100000002 14.3884507500000005
 21.3115470999999985  2.1003005899999998 19.2581460200000016
 21.0807474799999994  3.9752465400000001 20.8668534299999990
 20.8197793000000004  6.1298554100000002  1.9326872500000001
 21.4376955500000008  8.1790644300000004  3.7291255400000001
 20.9286564099999985 10.6415714099999992  6.0259721400000004
 20.9567219300000005 12.4607930400000004  8.5967272500000007
 21.1499906099999997 14.7371629199999994 10.6770709499999992
 21.0443218700000010 16.8284605599999999 12.9544271599999998
 21.2064656499999984 19.2254709599999991 14.8533109499999991
 21.1309174000000013 21.2206033500000011 17.0768591699999988
  4.1316007600000004  4.1749539400000000 -0.0593708400000000
  4.4136599800000003  6.2928271699999998  2.2901833900000002
  4.1682628700000004  8.6575110599999991  4.0829307999999997
  4.1428085899999996 10.7619479600000005  5.9736065199999997
  4.0864553199999998 12.9011760399999993  8.3884509000000005
  4.1383370800000003 14.8319952599999993 10.7392878899999999
  4.4649019100000000 16.7205560499999990 12.7728387300000001
  4.2212870100000002 19.0728055599999990 14.8161806499999997
  4.3516888700000003 -0.0872652800000000 16.5735515999999983
  4.4955114800000002  2.3186378900000002 18.7037170500000016
  6.2819463500000001  4.1559894100000001  1.9066188700000000
  6.4442227499999998  6.0560158800000004  3.9231808699999999
  6.3934331999999996  8.5546613800000006  5.8645514900000002
  5.9040323700000004 10.6797001700000003  8.0099019400000007
  6.2383569999999997 12.5284816400000008 10.5090287399999998
  6.4366325700000004 14.6533650099999999 12.5332216299999999
  6.4562963599999996 16.8928229899999991 14.8464177700000004
  6.3983322800000000 18.9624705200000001 16.8743000999999992
  6.3957186400000001  0.0138169000000000 18.6346033300000009
  6.3578256000000000  2.1159792999999998 20.8605308700000016
  8.1390102500000001  4.2084469999999996  4.1475777699999998
  8.3709921699999992  6.4822871099999997  6.1866295300000003
  8.1794685499999993  9.0141620400000004  8.2503641699999992
  8.0480638399999993 10.5882915400000002 10.3762952899999998
  8.2860121299999996 12.4313821000000004 12.7422196400000001
  8.2637658300000005 14.5343122200000003 14.8040496099999999
  8.1205378499999998 16.8555014199999995 16.8281823499999987
  8.6260814000000003 18.7731270399999985 19.3107390499999987
  8.4424749800000001 -0.0358373500000000  0.0229116800000000
  8.1675296100000008  1.8708938399999999  2.1790337700000002
 10.4951934199999997  4.1576884200000004  6.4734566600000001
 10.5418254699999991  6.3682310600000003  8.2496189999999991
 10.0378927000000004  8.4489881800000006 10.5486891299999996
 10.2792361700000008 10.7722918900000000 12.5103044800000003
 10.4652722399999991 12.5590970100000003 14.8340271799999996
 10.2840167699999991 14.6251771900000005 17.0497111399999994
 10.4315760399999995 16.6260813499999998 18.8546307900000016
 10.6781407000000002 18.9347076600000008 -0.0022735700000000
 10.6021537899999991  0.0974853000000000  1.9988191900000001
 10.4464858700000001  2.0033248100000001  4.2595789000000002
 12.2988733299999993  4.2559178299999996  8.3474810000000002
 12.4137123299999992  6.0930347800000000 10.3532693699999996
 12.2468330699999992  8.6304528400000002 12.2501802699999995
 12.7748858500000004 10.6301030700000005 14.8777701100000002
 12.3285961099999994 12.6041327600000006 16.9800979299999995
 12.4958931000000000 14.6442229400000006 18.6010089799999996
 12.4531042700000008 16.7826814000000013  0.0383782300000000
 12.4760705099999996 18.8763044600000001  2.2378667800000001
 12.7813408499999994  0.1956696100000000  4.1878983500000002
 12.4102820600000001  2.1298705299999998  6.4772509100000004
 14.5170416499999995  4.2240613199999997 10.6010296999999998
 14.5777068399999994  6.5598345399999998 12.4077465000000000
 14.6040414799999994  8.3827764299999998 14.5712009899999995
 14.5580534299999993 10.6436495099999995 16.8542109300000007
 14.6732578700000005 12.5840049999999994 19.0569604900000016
 14.5282955999999999 14.9997260499999996 -0.0897435900000000
 14.6894452999999992 16.9199302699999983  2.2758381800000000
 14.7975270099999996 18.8801174899999999  4.1009557499999998
 14.5161374300000006  0.1057746100000000  6.2388904700000003
 14.7803064800000001  2.0902641900000001  8.3946413999999994
 16.6844378000000013  4.2927445000000004 12.6251454499999998
 16.7073789099999992  6.2857896999999996 14.7220892600000006
 16.4938931300000000  8.2381864900000004 16.8437818300000011
 16.8403351599999986 10.6304468700000001 18.9363961299999985
 16.6857348300000012 12.8116984299999999 -0.0385908800000000
 16.8093252699999987 14.8226835200000000  2.1516970799999999
 16.9837575899999997 16.7919449100000016  4.1994175599999997
 16.6470590099999995 19.0004977799999999  6.6546064600000001
 16.5658901000000007  0.0862161100000000  8.5870541300000003
 16.5726940700000007  2.1410492099999998 10.3926519600000002
 18.7584283399999983  4.0028135000000002 14.6166380199999999
 18.8763785999999989  6.1770039299999997 16.6923862400000012
 18.5430632300000013  8.1427724099999992 18.7413331499999991
 18.8081555700000003 10.6046549300000006  0.0258332000000000
 19.0456324099999996 12.6231551599999996  2.0291722999999999
 18.9484776500000009 14.7797582700000003  4.5018295799999999
 18.9776544700000009 16.9212555699999996  6.6611634300000002
 18.7247432799999984 18.9702167199999998  8.2715477199999992
 18.8657204800000002  0.3338668800000000 10.3298585500000009
 18.5784035900000006  2.1419616900000000 12.7288017700000005
 -0.1547920100000000  3.9308734799999998 16.6491157600000008
 -0.0564175300000000  6.0313983400000000 19.0661821799999984
 -0.4145209500000000  8.4019412700000000  0.1432131900000000
  0.0640913600000000 10.4747185799999993  1.9277846300000001
 -0.0209519800000000 12.6767752300000005  4.1257362600000000
  0.1063231000000000 14.6735512700000008  6.6214676299999997
 -0.0585417800000000 16.9084440100000002  8.4164791099999992
 -0.0154576000000000 18.8835757700000002 10.4545412300000002
 -0.0565206800000000  0.2458627300000000 12.4979995000000006
  0.0509838900000000  2.1254980500000000 14.8014141200000005
  2.2412492099999999  4.4859792299999999 18.5436600600000006
  2.1939459399999999  5.9987395899999996 20.7463040999999997
  2.0526329699999999  8.1499033399999998  2.0519891499999998
  2.1116371400000000 10.6714943699999996  4.1111284499999998
  2.0462713799999999 12.6865645800000006  6.2001168499999997
  2.1198370899999999 14.7640580700000008  8.2937873100000008
  1.9383524800000000 16.9828076099999983 10.4898497000000006
  1.9805669200000000 19.0527471900000016 12.8344669499999995
  1.8056322000000000  0.1557745400000000 14.9091945199999998
  2.0244858799999998  2.3408181099999998 17.0073321399999990
  6.3560133800000003  6.4795905700000000 -0.0523212200000000
  6.3919639400000001  8.2573545599999996  2.1157378699999998
  6.3609245300000001 10.9889216199999993  3.9627166599999999
  5.7716232200000004 12.4370340800000001  6.0387047799999998
  6.1815748599999996 14.7487672799999991  8.4576219399999992
  6.0464591499999996 16.9350088499999991 10.7925243500000008
  6.0217546799999999 19.0032035300000004 12.8357387700000007
  6.4059046200000003  0.0025010200000000 14.6382366099999999
  6.4461705299999998  2.1773786999999998 16.4348323500000006
  6.4962284800000001  4.5028550400000000 18.7558514900000013
  8.4456496800000007  6.2965534400000003  2.2383180199999999
  8.2952626499999997  8.3710116800000005  4.3216932500000000
  8.4452233799999998 10.5647506399999997  6.1896495299999996
  7.9048218300000004 12.5442291099999998  7.7911694999999996
  8.1341698800000000 14.7017174300000004 10.4275051399999992
  8.2284949100000002 16.7732106999999999 12.5783148899999997
  8.2105944300000004 19.0724817299999998 14.7456364299999994
  8.7089310399999995 -0.0566822200000000 16.7044838899999988
  8.4537673600000005  2.2521662199999999 18.7412981099999989
  8.4066391500000002  4.4199287399999996 20.6166620099999989
 10.6912909700000007  6.2200642300000002  4.1408992700000002
 10.3055773800000008  8.5493956400000002  6.3216940900000003
 10.5451553499999999 10.6254837999999996  8.4086500999999991
  9.9980183999999994 12.5643667600000004 10.2879026699999994
 10.1514990199999993 14.4731860999999995 12.5129087200000004
 10.0788951699999991 16.6652094499999990 14.7749990300000000
 10.3929880099999998 18.7630737100000005 16.9915484700000015
 10.5349841000000009 -0.3615485200000000 18.9083564600000003
 10.3585113900000003  2.1844448999999999 -0.0648013800000000
 10.6845368300000008  4.1849262200000004  1.9556583999999999
 12.5925770700000008  6.1983883200000003  6.2460850900000002
 12.4325247500000007  8.4833815500000007  8.2312183099999991
 12.4242592199999997 10.5889566700000000 10.4974735399999997
 12.3395388100000005 12.6475391300000002 12.5811220499999994
 12.4557728900000004 14.5644214900000009 14.5196431300000004
 12.3868816699999993 16.7521650599999994 16.7230021800000017
 12.8600216899999999 18.9989473300000000 18.8338733299999994
 12.6055487300000006 -0.1592265200000000  0.1691994300000000
 12.8565136800000008  2.0766236800000000  1.9424557000000000
 12.7986219899999991  4.1281652299999996  4.2012921499999996
 14.7649163600000009  6.2732031900000003  8.5163216399999992
 14.6859369999999991  8.1986079699999994 10.1354489399999999
 14.6518918500000002 10.7126400099999994 12.5218569100000003
 14.6350714899999996 12.4915070400000001 14.6385407000000001
 14.8728289900000004 14.5535483699999997 16.7052722100000004
 14.4060022700000001 16.7792724600000014 18.6319658500000003
 14.7303475000000006 18.8101893400000009 -0.1720980700000000
 14.7707351500000001  0.2887693200000000  1.9213716599999999
 14.5792019899999996  2.3285631400000000  4.3381099399999998
 14.8080635500000000  4.1131721299999997  6.2316750100000000
 17.1761199900000001  6.1857007599999996 10.6020922399999993
 17.0807871999999996  8.4650932700000006 12.4279647299999993
 16.8746676499999992 10.6393493400000008 14.6116035899999996
 16.5982904600000012 12.7467473099999999 16.8957399700000011
 16.5560079000000009 14.7784277999999993 19.0582678399999992
 17.1296211300000003 16.9805935499999983 -0.2559527100000000
 17.0306934199999986 19.1175613999999996  1.8569498700000000
 16.6728030300000007 -0.0555105200000000  4.2511745599999999
 16.8989636800000014  1.7798401500000001  6.3941402199999997
 16.4913810599999984  4.2910552500000003  8.0112023899999993
 19.0691771599999988  6.2370136799999996 12.9040708700000000
 18.7610857300000013  8.4599786899999998 14.8032722999999997
 18.4778568800000009 10.7341802899999994 16.8147637799999998
 18.7454882699999992 12.6450782000000004 18.8723262600000012
 18.9255911800000014 14.7741705799999998  0.1405276600000000
 18.9571442700000006 17.0779909500000002  1.9738142700000001
 19.0053231599999997 18.8569549199999997  4.3992522300000001
 19.0090277199999989 -0.1191366500000000  6.5567563399999997
 19.1387593600000017  2.1556883800000000  8.2664822600000001
 18.8776126700000013  4.0586146599999999 10.4137902199999992
  0.2451661400000000  6.2080076999999996 14.6075948699999998
 -0.1574295400000000  8.3277970700000008 17.1169172900000000
 -0.3237748000000000 10.5794628199999998 18.8719943999999984
  0.0665038900000000 12.5588162400000005 -0.1707655800000000
 -0.2099407300000000 14.7598187200000002  2.1611941300000002
 -0.0381734600000000 16.5752591900000006  4.3441476500000000
  0.0656285200000000 18.9709128500000013  6.3851983099999998
  0.0162676700000000 -0.0129509900000000  8.1680180100000008
  0.1122497000000000  2.3313668800000000 10.4217561300000003
  0.0101091200000000  4.0055480699999997 12.5510134799999999
  1.9502527800000000  6.4458067600000000 16.4705204199999997
  2.0908972200000000  8.2516712999999999 19.0807392299999989
  2.0825348199999998 10.4053694199999995 -0.0909406300000000
  2.2605483400000002 12.3766230700000008  1.8593213099999999
  1.8664257500000001 14.6521406699999996  4.3031403299999997
  2.3721290900000001 17.1377066599999992  6.1967275600000002
  2.0355955899999998 18.8475529500000007  8.4383269999999992
  2.1141497199999999  0.0406351600000000 10.5306021100000002
  2.2251706599999999  2.1093200300000001 12.4238747299999996
  2.1585632000000001  4.1265377900000004 14.6243484299999995
  4.4965111799999997  6.7134716900000004 18.6205266099999989
  4.4671711600000004  7.9276437399999997 21.0550666500000005
  4.6313120999999997 10.4483544599999991  1.9076736599999999
  4.0180798500000003 12.6202478399999993  3.9704076900000000
  4.0489504099999998 14.7301485599999999  6.1345179300000003
  4.0600179499999998 16.9424604599999995  8.3479208200000006
  3.9531062100000001 18.8531404299999998 10.7288396499999994
  4.0884724800000001  0.2807741100000000 12.6770199100000003
  3.9105103600000000  2.2159273100000001 14.7340552299999992
  4.4998820400000001  4.2675226799999999 16.5865093500000000
  8.5439284600000001  8.0750922200000002  0.1262964700000000
  8.4371829199999997 10.3554936499999997  2.2585566199999998
  8.4468449900000007 12.7397504799999997  4.0768136300000002
  8.3825646000000003 14.5036529499999993  6.3145460499999997
  8.4304048900000002 16.8064325900000000  8.5355921400000003
  8.2832182599999999 18.7341203299999997 10.4818420700000008
  8.0896946399999994 -0.0794873900000000 12.3251610300000003
  8.6519947500000001  2.0200759599999998 14.5386154899999998
  8.4270821700000003  4.2769432600000004 16.7163196300000010
  8.4696694600000004  6.5558548600000002 18.8914973500000016
 10.5382416299999999  8.2669026599999995  2.4021219700000001
 10.5497395399999991 10.5450023999999996  4.1205443099999997
 10.7370927500000004 12.3906896000000000  5.9341120800000002
 10.4211673299999994 14.4176636699999996  8.5694377900000003
 10.3409058799999993 16.3673455499999996 10.7984650599999998
 10.6392819700000008 18.8623532599999990 12.5325271600000008
 10.5028897299999997 -0.3289278400000000 14.7456890800000000
 10.5532817399999992  2.0883869900000001 16.4305961600000003
 10.4562248699999998  4.2029771199999999 18.8586320200000017
 10.5992288400000003  6.2360094600000000 21.1322725200000008
 12.4364362300000000  8.6887971200000003  4.5268271599999999
 12.6021926000000004 10.4035531199999998  6.3130699600000000
 12.7500651699999992 12.6020904100000006  8.2127657799999998
 12.5241699600000000 14.3090742199999994 10.7036130400000005
 12.1938936299999998 16.5502767400000010 12.6219123100000008
 12.3816103700000006 18.4401661099999998 14.8519308300000006
 12.6781209700000002 -0.1459295900000000 16.8253384100000005
 12.4619426200000003  1.8251852799999999 18.8868966000000000
 12.5723648299999997  4.5556855900000004 -0.2689001000000000
 12.8778832500000000  6.6064492300000000  2.5285525000000000
 14.4127856399999992  8.1908540199999997  6.3341940100000000
 14.7217194199999994 10.3493445899999994  8.1755129300000000
 14.8231186400000006 12.7232672600000001 10.4907895700000005
 14.7293156300000003 14.5998782899999995 12.9122286499999994
 14.5313666900000005 16.9649312099999996 14.5389500799999993
 14.5110341100000007 19.0513084900000003 16.6855002399999996
 15.0584209799999993 -0.1083903400000000 18.9085705900000001
 14.6387687999999994  1.9308146700000000 -0.0596158500000000
 14.5112227199999992  3.9709051700000000  2.0659275899999998
 14.5021374400000003  6.5094905599999997  4.3022506299999996
 16.9765473600000014  8.0745620700000007  8.5183741899999994
 16.8447486499999997 10.0802005099999992 10.2307623299999992
 16.8940973200000002 12.6209046600000008 12.5467682400000005
 16.9122494699999990 14.7476819100000007 14.5212198099999998
 16.7257153800000005 16.7910990399999989 16.8203106499999997
 16.7769171499999992 18.7404182900000009 18.4454232900000008
 17.0259522600000004 -0.0297419900000000 -0.1100922200000000
 16.8847438899999993  1.6252157500000000  2.5706536899999999
 17.0323580600000000  4.1077545899999999  4.3009583300000003
 16.7689077100000006  6.4460094300000002  6.0430367800000004
 18.9134476199999995  8.5847977600000007 10.3687236800000004
 19.0663945599999991 10.5927724699999999 12.7642339800000002
 18.5513597600000004 12.6143935000000003 14.5686742099999993
 18.9003645999999996 14.4658054400000005 16.6351237199999993
 18.8198249299999993 16.9155158199999995 18.4298623100000007
 19.1510855699999993 19.0058144300000009 -0.2975815600000000
 18.9780996799999997  0.0941756900000000  2.0658668699999998
 19.3148076499999988  2.2036305000000000  4.3866036800000003
 18.7807009200000010  4.2011512900000003  6.3406598000000001
 19.1060900700000005  6.2116274899999997  8.4702225099999993
  0.0025345800000000  8.2626067699999997 12.7176382500000003
 -0.0174198100000000 10.4904566900000003 14.9632864399999992
  0.0648669600000000 12.7761349800000001 16.8060268099999988
 -0.2806242600000000 14.7894883799999999 18.8641596100000015
 -0.2046388100000000 16.8896311799999985  0.0393673900000000
 -0.0386206400000000 18.8146836700000009  2.3466358100000000
 -0.0205368900000000  0.1527828400000000  4.2406176300000000
  0.0146608500000000  2.1052608400000001  6.6315450900000004
  0.0850036300000000  4.7163127300000003  8.3866581399999998
  0.2228335400000000  6.3730767699999999 10.8835823200000004
  1.9319005700000000  8.3498530199999994 14.8357209500000007
  1.9016396700000000 10.6690432800000004 17.0407140400000010
  2.1144167399999998 12.6004277699999996 19.0840762200000000
  2.0470691500000000 14.5208179600000005  0.0291486600000000
  1.9969636900000001 16.6980875600000012  2.0517701700000002
  1.9284973999999999 19.0111760799999985  4.0349142999999996
  2.1454437099999999 -0.2120428300000000  6.1128938100000001
  2.1394513000000002  2.1775429599999998  8.5636225800000005
  2.1829054200000000  4.4164873699999996 10.5447074799999996
  2.1252728400000001  5.9817241799999996 12.4654708299999992
  3.9313565000000001  8.4276832299999995 16.9702805900000016
  4.4454359200000004 10.3043557000000003 19.2686415500000017
  4.4142681599999998 12.4634993900000008 -0.2383844800000000
  4.1590528400000002 14.7668918300000005  1.8240732700000000
  4.0757589999999997 16.8143169499999985  3.8678245100000002
  4.1692607900000000 18.6788775399999984  6.2065736800000000
  4.0619441600000004  0.0220403200000000  8.6035738199999994